135
Lattice="11.898253856589696 0.0 0.0 0.0 11.898253856589696 0.0 0.0 0.0 12.912076929577747" Properties=species:S:1:pos:R:3:MACE_becs:R:9 timestep=50000 time_ps=100.0 lammps_kinetic_energy=4.28819130648136e-11 lammps_total_energy=-1103.8668980747 temperature_K=2.47573818366896e-09 lammps_pressure_bar=37880.1203170878 lammps_stress_bar="40223.2568509584 -0.0278274520384519 0.0615580059789374 -0.0278274520384519 40223.3674919946 -0.134572955745966 0.0615580059789374 -0.134572955745966 33193.7366083103" MACE_electric_field="0.0 0.0 -0.3636" MACE_polarization="-1.4738455433871422e-07 -5.329690022648492e-09 0.040394071489572525" MACE_polarizability="5.1075119972229 -6.797569085392752e-08 3.431847062529414e-06 -6.917588279975462e-08 5.107513427734375 -1.483821563397214e-07 3.4378615509922383e-06 -1.3926168662692362e-07 4.223349094390869" pbc="T T T"
Ba       1.98235000       1.97666000       0.27459600       2.86478853      -0.00000108       0.00001356      -0.00000316       2.86478877       0.00000487       0.00000871       0.00000133       3.21574926
Ba       1.98235000       1.97666000       4.57862000       2.86480379       0.00000059      -0.00000621      -0.00000207       2.86480379      -0.00000971      -0.00000239       0.00000243       3.21581507
Ba       1.98235000       1.97666000       8.88265000       2.86482239      -0.00000151       0.00000143      -0.00000437       2.86483097       0.00000709      -0.00000084      -0.00000774       3.21591330
Ba       1.98235000       5.94274000       0.27459600       2.86478662       0.00000012       0.00001565       0.00000043       2.86477280      -0.00000929       0.00000963      -0.00000664       3.21576118
Ba       1.98235000       5.94274000       4.57862000       2.86481142      -0.00000146      -0.00001018      -0.00000022       2.86479664       0.00001754       0.00000189       0.00000643       3.21581435
Ba       1.98235000       5.94274000       8.88265000       2.86481857       0.00000020      -0.00000416       0.00000263       2.86482668      -0.00000129      -0.00000389       0.00000349       3.21590376
Ba       1.98235000       9.90883000       0.27459500       2.86477804      -0.00000029       0.00001305      -0.00000029       2.86479068      -0.00000438       0.00000147       0.00001389       3.21576357
Ba       1.98235000       9.90882000       4.57862000       2.86480951      -0.00000183       0.00000666       0.00000122       2.86479783       0.00000955       0.00000790       0.00000321       3.21582317
Ba       1.98235000       9.90882000       8.88265000       2.86483383      -0.00000197      -0.00000176       0.00000026       2.86483955       0.00000965      -0.00000320       0.00001237       3.21591091
Ba       5.94843000       1.97666000       0.27459600       2.86478043       0.00000231      -0.00000016       0.00000575       2.86479712      -0.00000078      -0.00000594      -0.00000212       3.21574306
Ba       5.94843000       1.97666000       4.57862000       2.86479783      -0.00000230       0.00000827       0.00000123       2.86481428      -0.00000972       0.00000488       0.00000071       3.21581721
Ba       5.94843000       1.97666000       8.88265000       2.86482668       0.00000101      -0.00000329       0.00000030       2.86482573       0.00000904       0.00000971      -0.00000379       3.21589708
Ba       5.94843000       5.94274000       0.27459600       2.86478233      -0.00000016      -0.00000057      -0.00000281       2.86477184      -0.00000791      -0.00000083      -0.00000335       3.21575236
Ba       5.94843000       5.94274000       4.57862000       2.86479568       0.00000062       0.00000646      -0.00000112       2.86478901       0.00001572       0.00000774       0.00001407       3.21581030
Ba       5.94843000       5.94274000       8.88265000       2.86482906       0.00000031      -0.00000234      -0.00000281       2.86481571      -0.00000428       0.00001289      -0.00000105       3.21589947
Ba       5.94843000       9.90883000       0.27459500       2.86477256      -0.00000184      -0.00000096      -0.00000337       2.86479425      -0.00000207      -0.00000393       0.00000476       3.21575832
Ba       5.94843000       9.90882000       4.57862000       2.86479902      -0.00000016       0.00000125      -0.00000051       2.86479807       0.00000398       0.00000943       0.00000222       3.21581554
Ba       5.94843000       9.90883000       8.88265000       2.86483574       0.00000184      -0.00000735      -0.00000679       2.86483073       0.00002457       0.00000072       0.00001442       3.21589994
Ba       9.91452000       1.97666000       0.27459600       2.86478996      -0.00000152      -0.00000354      -0.00000170       2.86479664       0.00000192       0.00000477       0.00000605       3.21575093
Ba       9.91452000       1.97665000       4.57862000       2.86479163      -0.00000236      -0.00000341      -0.00000220       2.86480856      -0.00001060      -0.00000531       0.00000901       3.21584129
Ba       9.91452000       1.97665000       8.88265000       2.86481476      -0.00000189       0.00001116      -0.00000125       2.86482430      -0.00001763       0.00000413      -0.00000728       3.21591949
Ba       9.91452000       5.94274000       0.27459600       2.86478281      -0.00000015      -0.00000018      -0.00000036       2.86477733      -0.00000918       0.00000668      -0.00000578       3.21574545
Ba       9.91452000       5.94274000       4.57862000       2.86478996      -0.00000080       0.00000255      -0.00000047       2.86479998       0.00002416      -0.00000870       0.00000195       3.21583652
Ba       9.91452000       5.94274000       8.88265000       2.86481762      -0.00000052       0.00001642      -0.00000017       2.86482024       0.00000632       0.00000041       0.00000405       3.21591043
Ba       9.91452000       9.90883000       0.27459500       2.86477613      -0.00000022      -0.00000257       0.00000269       2.86479187      -0.00000925       0.00000349       0.00000309       3.21575451
Ba       9.91452000       9.90882000       4.57862000       2.86480188       0.00000020      -0.00000708       0.00000022       2.86479759       0.00001231      -0.00000750       0.00000131       3.21582103
Ba       9.91452000       9.90882000       8.88265000       2.86483097      -0.00000206       0.00001242       0.00000553       2.86482501       0.00001030       0.00000464       0.00000710       3.21591473
Ti      -0.00069526      -0.00638664       2.31920000       6.22666407      -0.00001189       0.00001124      -0.00000856       6.22668028       0.00000581       0.00002629       0.00001218       4.07300901
Ti      -0.00069534      -0.00638633       6.62323000       6.22666597       0.00000411       0.00000268       0.00000151       6.22669888      -0.00003409       0.00001496      -0.00000948       4.07296133
Ti      -0.00069492      -0.00638624      10.92730000       6.22644711      -0.00000197       0.00000621      -0.00000249       6.22643089       0.00000268       0.00000731       0.00000860       4.07281971
Ti      -0.00069516       3.95970000       2.31920000       6.22666740       0.00000613       0.00001300       0.00000877       6.22667360       0.00001771       0.00002983      -0.00001173       4.07300425
Ti      -0.00069531       3.95970000       6.62323000       6.22667170       0.00000288       0.00002132       0.00000297       6.22664738      -0.00000404       0.00001606      -0.00002558       4.07300663
Ti      -0.00069558       3.95970000      10.92730000       6.22644281      -0.00001382       0.00002972      -0.00001615       6.22646332       0.00000617       0.00000703       0.00000216       4.07280397
Ti      -0.00069544       7.92578000       2.31920000       6.22667456       0.00000614       0.00002156       0.00000229       6.22665024       0.00000509       0.00002855       0.00004007       4.07299614
Ti      -0.00069516       7.92578000       6.62323000       6.22665215      -0.00000713       0.00002678      -0.00000643       6.22666407      -0.00001399       0.00001473       0.00000125       4.07296896
Ti      -0.00069499       7.92578000      10.92730000       6.22642422       0.00001030       0.00000145       0.00001141       6.22641325       0.00001490       0.00001609       0.00003015       4.07282448
Ti       3.96539000      -0.00638644       2.31920000       6.22669125       0.00002985      -0.00000879       0.00002611       6.22667599      -0.00000189      -0.00002353       0.00000925       4.07298851
Ti       3.96539000      -0.00638674       6.62323000       6.22670937       0.00000096       0.00001762      -0.00000288       6.22667170      -0.00001538       0.00000884      -0.00002494       4.07295275
Ti       3.96539000      -0.00638617      10.92730000       6.22647762      -0.00001139       0.00002677      -0.00001243       6.22645569       0.00002383       0.00000492       0.00000917       4.07281733
Ti       3.96539000       3.95970000       2.31920000       6.22668886       0.00000306       0.00000156      -0.00000429       6.22668171       0.00000420      -0.00001172      -0.00000910       4.07299471
Ti       3.96539000       3.95970000       6.62323000       6.22670269       0.00000679       0.00002142       0.00000145       6.22665119      -0.00001549      -0.00000386      -0.00002106       4.07302189
Ti       3.96539000       3.95970000      10.92730000       6.22647381       0.00001478       0.00001838       0.00000759       6.22648907       0.00000057       0.00001060       0.00000604       4.07282305
Ti       3.96539000       7.92578000       2.31920000       6.22667646      -0.00001461      -0.00000127      -0.00001619       6.22663736      -0.00000452      -0.00002343       0.00002699       4.07299757
Ti       3.96539000       7.92578000       6.62323000       6.22667027      -0.00000223       0.00000991      -0.00000226       6.22667646      -0.00000418       0.00000777      -0.00000607       4.07299709
Ti       3.96539000       7.92578000      10.92730000       6.22647953       0.00000297       0.00001750      -0.00000114       6.22641897       0.00001801       0.00001176       0.00001171       4.07282209
Ti       7.93147000      -0.00638672       2.31920000       6.22667837       0.00000567       0.00001150       0.00000426       6.22668791       0.00001189       0.00001935       0.00000955       4.07302713
Ti       7.93147000      -0.00638645       6.62323000       6.22666979      -0.00000524       0.00001777      -0.00000212       6.22671890      -0.00002054       0.00002865      -0.00001162       4.07299519
Ti       7.93147000      -0.00638625      10.92730000       6.22641230       0.00001099       0.00002244       0.00001041       6.22644472       0.00000139       0.00001806      -0.00001017       4.07283163
Ti       7.93147000       3.95970000       2.31920000       6.22666025      -0.00000088      -0.00000334       0.00000008       6.22665167       0.00000310       0.00001997      -0.00000784       4.07300615
Ti       7.93147000       3.95970000       6.62323000       6.22667360      -0.00000915      -0.00001936      -0.00000611       6.22667122      -0.00001628       0.00001761      -0.00003950       4.07303429
Ti       7.93147000       3.95970000      10.92730000       6.22643232      -0.00000114       0.00000576       0.00000503       6.22646999      -0.00000634       0.00002391      -0.00000160       4.07282114
Ti       7.93147000       7.92578000       2.31920000       6.22665215      -0.00000013       0.00001227       0.00000083       6.22666693       0.00001026       0.00001927       0.00003107       4.07300472
Ti       7.93147000       7.92578000       6.62323000       6.22664309       0.00001236       0.00001014       0.00001053       6.22666454      -0.00000980       0.00001701       0.00000562       4.07299519
Ti       7.93147000       7.92578000      10.92730000       6.22644234      -0.00000057       0.00001240      -0.00000011       6.22644138       0.00000669       0.00003000       0.00000118       4.07280445
O       -0.00069615       1.97666000       1.95114000      -2.04033923       0.00000218      -0.00000374      -0.00000058      -5.10523081      -0.00000271      -0.00001944      -0.00000963      -1.99664128
O        1.98235000      -0.00638584       1.95114000      -5.10523510      -0.00000309      -0.00000087      -0.00000262      -2.04034233      -0.00001462       0.00000617      -0.00002070      -1.99663901
O       -0.00069593      -0.00638661       4.05738000      -1.94588923       0.00000228      -0.00000161       0.00000188      -1.94589436       0.00001244      -0.00000100      -0.00000841      -3.29546309
O       -0.00069432       1.97665000       6.25517000      -2.04033351       0.00000137       0.00000154      -0.00000979      -5.10525084       0.00001612      -0.00000113       0.00002359      -1.99664950
O        1.98235000      -0.00638752       6.25517000      -5.10524607      -0.00000122      -0.00001060       0.00000546      -2.04034019      -0.00000553      -0.00001557      -0.00000240      -1.99663305
O       -0.00069487      -0.00638661       8.36140000      -1.94587779       0.00000342      -0.00001152       0.00000274      -1.94588006       0.00000318      -0.00000271       0.00000284      -3.29531050
O       -0.00069513       1.97666000      10.55920000      -2.04034233       0.00000847       0.00000890       0.00000046      -5.10511303      -0.00000496      -0.00000081      -0.00000613      -1.99667668
O        1.98235000      -0.00638646      10.55920000      -5.10510826       0.00000016      -0.00000001       0.00000534      -2.04034734       0.00000224      -0.00000895      -0.00000066      -1.99667287
O       -0.00069484      -0.00638641      -0.24664700      -1.94580889       0.00000568      -0.00000533       0.00000493      -1.94580841      -0.00001834      -0.00000277      -0.00000401      -3.29559994
O       -0.00069618       5.94274000       1.95114000      -2.04033709       0.00000073       0.00000315       0.00000100      -5.10523415       0.00000137      -0.00000536      -0.00001171      -1.99663997
O        1.98235000       3.95970000       1.95114000      -5.10524464      -0.00000094      -0.00000963       0.00000549      -2.04035187       0.00000446      -0.00000535       0.00001539      -1.99665058
O       -0.00069507       3.95970000       4.05738000      -1.94589400       0.00000244      -0.00000911       0.00000437      -1.94589579      -0.00000760      -0.00000421       0.00000245      -3.29545546
O       -0.00069403       5.94274000       6.25517000      -2.04032588       0.00000109      -0.00000104       0.00000591      -5.10525465       0.00000410      -0.00001261       0.00000706      -1.99664354
O        1.98235000       3.95970000       6.25517000      -5.10525560      -0.00000281      -0.00001071      -0.00000706      -2.04034734      -0.00000493      -0.00001825      -0.00000804      -1.99664831
O       -0.00069477       3.95970000       8.36140000      -1.94587183       0.00000009      -0.00002284       0.00000040      -1.94586706       0.00000466      -0.00000345      -0.00000220      -3.29531384
O       -0.00069538       5.94274000      10.55920000      -2.04033399      -0.00000286      -0.00000129       0.00000290      -5.10511208      -0.00000368      -0.00000440      -0.00000698      -1.99666572
O        1.98235000       3.95970000      10.55920000      -5.10512352      -0.00000370      -0.00000126      -0.00000382      -2.04033661      -0.00000202      -0.00001005      -0.00000369      -1.99667430
O       -0.00069528       3.95970000      -0.24664700      -1.94580448      -0.00000241      -0.00000948       0.00000001      -1.94580531      -0.00000489       0.00000091       0.00000005      -3.29558611
O       -0.00069592       9.90883000       1.95114000      -2.04034185      -0.00000729       0.00001047      -0.00000233      -5.10524082      -0.00001025       0.00000672      -0.00002382      -1.99663854
O        1.98235000       7.92578000       1.95114000      -5.10523987       0.00000239       0.00000354      -0.00000472      -2.04034615       0.00000493       0.00000498       0.00000326      -1.99663520
O       -0.00069532       7.92578000       4.05738000      -1.94588506       0.00000170      -0.00001076       0.00000021      -1.94589913       0.00000296       0.00000200       0.00000211      -3.29544783
O       -0.00069425       9.90882000       6.25517000      -2.04033971      -0.00000067      -0.00000720      -0.00000348      -5.10523748       0.00000578      -0.00001229       0.00001099      -1.99664879
O        1.98235000       7.92578000       6.25517000      -5.10524225       0.00000107      -0.00000339       0.00000465      -2.04035234       0.00000145      -0.00001220       0.00000226      -1.99665833
O       -0.00069490       7.92578000       8.36140000      -1.94587409      -0.00000023      -0.00000738       0.00000141      -1.94587493      -0.00000028      -0.00000569       0.00000268      -3.29532003
O       -0.00069520       9.90883000      10.55920000      -2.04033995      -0.00000603       0.00000495       0.00000227      -5.10510445      -0.00001462      -0.00000273      -0.00002146      -1.99667740
O        1.98235000       7.92578000      10.55920000      -5.10512543      -0.00000219      -0.00000320      -0.00000133      -2.04034996       0.00000042      -0.00001526      -0.00000796      -1.99667645
O       -0.00069534       7.92578000      -0.24664700      -1.94580126       0.00000079      -0.00001031      -0.00000114      -1.94581008      -0.00000074      -0.00000289      -0.00001057      -3.29561043
O        3.96539000       1.97666000       1.95114000      -2.04034519      -0.00000250      -0.00000178      -0.00000002      -5.10524130      -0.00001037       0.00000022      -0.00002096      -1.99664509
O        5.94843000      -0.00638541       1.95114000      -5.10525751      -0.00000548       0.00000049      -0.00000264      -2.04033566       0.00000745      -0.00001150       0.00000983      -1.99663663
O        3.96539000      -0.00638671       4.05738000      -1.94590712      -0.00000077       0.00000189       0.00000251      -1.94590652       0.00000246      -0.00000300      -0.00000366      -3.29547167
O        3.96539000       1.97665000       6.25517000      -2.04034567      -0.00000164      -0.00000056       0.00000123      -5.10524130       0.00001422       0.00000168       0.00000973      -1.99665165
O        5.94843000      -0.00638759       6.25517000      -5.10525656       0.00000069      -0.00000543       0.00000716      -2.04032516       0.00000079      -0.00001043       0.00000177      -1.99663210
O        3.96539000      -0.00638681       8.36140000      -1.94587517       0.00000184      -0.00001299       0.00000283      -1.94588017       0.00000101      -0.00000148       0.00000365      -3.29530096
O        3.96539000       1.97666000      10.55920000      -2.04033542       0.00000245      -0.00000966      -0.00000113      -5.10512066      -0.00001082      -0.00000955      -0.00000185      -1.99667847
O        5.94843000      -0.00638648      10.55920000      -5.10511255      -0.00000096      -0.00000250      -0.00000417      -2.04035425      -0.00000945      -0.00001318      -0.00002064      -1.99668002
O        3.96539000      -0.00638669      -0.24664700      -1.94581246       0.00000036      -0.00000460      -0.00000047      -1.94581139      -0.00001318      -0.00000323      -0.00000117      -3.29558635
O        3.96539000       5.94274000       1.95114000      -2.04033804      -0.00000189      -0.00001028       0.00000485      -5.10522842       0.00000255      -0.00000947      -0.00001096      -1.99664176
O        5.94843000       3.95970000       1.95114000      -5.10523844      -0.00000153      -0.00000028      -0.00000127      -2.04034162      -0.00000408      -0.00000253       0.00000711      -1.99664187
O        3.96539000       3.95970000       4.05738000      -1.94590342       0.00000031      -0.00000703      -0.00000104      -1.94590437      -0.00000289      -0.00000025       0.00000324      -3.29547453
O        3.96539000       5.94274000       6.25517000      -2.04033637       0.00000050      -0.00000342      -0.00000025      -5.10525417       0.00000060       0.00000223       0.00000125      -1.99665546
O        5.94843000       3.95970000       6.25517000      -5.10527182       0.00000085      -0.00000396      -0.00000038      -2.04033113       0.00000210      -0.00000901       0.00000303      -1.99664950
O        3.96539000       3.95970000       8.36140000      -1.94586992      -0.00000191       0.00000097      -0.00000022      -1.94586992       0.00001512      -0.00000224      -0.00000031      -3.29530501
O        3.96539000       5.94274000      10.55920000      -2.04033232      -0.00000211      -0.00000934       0.00000340      -5.10511494      -0.00000492      -0.00000931      -0.00000894      -1.99666715
O        5.94843000       3.95970000      10.55920000      -5.10513020       0.00000173      -0.00000536       0.00000321      -2.04033184       0.00000297      -0.00001441       0.00000232      -1.99667263
O        3.96539000       3.95970000      -0.24664700      -1.94580567       0.00000197      -0.00000260       0.00000162      -1.94580674      -0.00000353      -0.00000180       0.00000005      -3.29557705
O        3.96539000       9.90883000       1.95114000      -2.04034591       0.00000760      -0.00000638       0.00000484      -5.10522747      -0.00001253      -0.00000663      -0.00001929      -1.99663830
O        5.94843000       7.92578000       1.95114000      -5.10522842       0.00000292       0.00000137       0.00000386      -2.04033422       0.00000624      -0.00000948       0.00000814      -1.99662876
O        3.96539000       7.92578000       4.05738000      -1.94589269       0.00000005      -0.00000324       0.00000096      -1.94590735       0.00000157       0.00000016      -0.00000230      -3.29546404
O        3.96539000       9.90882000       6.25517000      -2.04035187       0.00000142      -0.00000134      -0.00000304      -5.10522413       0.00001047      -0.00000112       0.00003100      -1.99665403
O        5.94843000       7.92578000       6.25517000      -5.10526514      -0.00000576      -0.00000318       0.00000057      -2.04034495       0.00000045      -0.00000534      -0.00000236      -1.99665880
O        3.96539000       7.92578000       8.36140000      -1.94587731       0.00000107      -0.00000536      -0.00000022      -1.94588375      -0.00000693       0.00000031       0.00000442      -3.29531574
O        3.96539000       9.90883000      10.55920000      -2.04034615      -0.00000162      -0.00000215      -0.00000287      -5.10507298      -0.00001342       0.00000072      -0.00001776      -1.99667954
O        5.94843000       7.92578000      10.55920000      -5.10511780      -0.00000056      -0.00000058      -0.00000418      -2.04034376       0.00000241      -0.00000537      -0.00000055      -1.99666727
O        3.96539000       7.92578000      -0.24664700      -1.94580555       0.00000017      -0.00000405       0.00000032      -1.94581723      -0.00000503      -0.00000131      -0.00000159      -3.29559851
O        7.93147000       1.97666000       1.95114000      -2.04035187      -0.00000218       0.00000393       0.00000088      -5.10523367      -0.00000169       0.00000677      -0.00001081      -1.99663305
O        9.91452000      -0.00638587       1.95114000      -5.10522270      -0.00000353      -0.00001035      -0.00000016      -2.04034281       0.00000482      -0.00001876       0.00000014      -1.99664259
O        7.93147000      -0.00638647       4.05738000      -1.94590104      -0.00000284      -0.00000996      -0.00000364      -1.94588590       0.00000200       0.00000094      -0.00000460      -3.29545116
O        7.93148000       1.97665000       6.25517000      -2.04034328      -0.00000802       0.00000565      -0.00000067      -5.10527325       0.00001717       0.00000340       0.00001160      -1.99665201
O        9.91452000      -0.00638767       6.25517000      -5.10523701       0.00000446      -0.00000878       0.00000121      -2.04034638      -0.00000187      -0.00001254      -0.00000099      -1.99665451
O        7.93147000      -0.00638675       8.36140000      -1.94588161      -0.00000422      -0.00000985      -0.00000626      -1.94588077       0.00000331       0.00000131       0.00000245      -3.29532909
O        7.93147000       1.97666000      10.55920000      -2.04034948      -0.00000576       0.00000175       0.00000085      -5.10512686       0.00000016       0.00001023       0.00000769      -1.99667394
O        9.91452000      -0.00638672      10.55920000      -5.10508871      -0.00000092      -0.00001724       0.00000029      -2.04035425       0.00001177      -0.00001648       0.00000940      -1.99668169
O        7.93147000      -0.00638660      -0.24664700      -1.94580817      -0.00000340      -0.00001701      -0.00000165      -1.94580352      -0.00001608      -0.00000074      -0.00000253      -3.29559469
O        7.93147000       5.94274000       1.95114000      -2.04034185       0.00000736      -0.00000305      -0.00000031      -5.10522127      -0.00000430      -0.00000454      -0.00001614      -1.99662912
O        9.91452000       3.95970000       1.95114000      -5.10521603      -0.00000206      -0.00001845      -0.00000183      -2.04035139      -0.00001083      -0.00002532      -0.00000641      -1.99665034
O        7.93147000       3.95970000       4.05738000      -1.94590592      -0.00000170       0.00000223      -0.00000034      -1.94589341       0.00000065      -0.00000293       0.00000112      -3.29548025
O        7.93147000       5.94274000       6.25517000      -2.04033780      -0.00000107       0.00000801       0.00000138      -5.10526037       0.00000036       0.00000907       0.00000596      -1.99663997
O        9.91452000       3.95970000       6.25517000      -5.10524464       0.00000203      -0.00001283       0.00000165      -2.04034138       0.00000708      -0.00000970       0.00001320      -1.99665475
O        7.93147000       3.95970000       8.36140000      -1.94587374       0.00000206      -0.00000666       0.00000045      -1.94586253       0.00001519       0.00000190       0.00000178      -3.29530954
O        7.93147000       5.94274000      10.55920000      -2.04035163       0.00000385       0.00000462      -0.00000464      -5.10512400       0.00000001       0.00000744       0.00000388      -1.99666595
O        9.91452000       3.95970000      10.55920000      -5.10508919       0.00000184      -0.00001487      -0.00000088      -2.04033613       0.00000052      -0.00001783       0.00000236      -1.99666858
O        7.93147000       3.95970000      -0.24664700      -1.94581079       0.00000300      -0.00000102      -0.00000039      -1.94580138      -0.00000334      -0.00000525      -0.00000265      -3.29558492
O        7.93147000       9.90883000       1.95114000      -2.04034328      -0.00000775       0.00000922      -0.00001063      -5.10524130      -0.00000998       0.00001014      -0.00002257      -1.99662292
O        9.91452000       7.92578000       1.95114000      -5.10522079       0.00000002      -0.00002063       0.00000097      -2.04034257      -0.00000246      -0.00002289       0.00000343      -1.99663353
O        7.93147000       7.92578000       4.05738000      -1.94589317       0.00000201      -0.00000609      -0.00000009      -1.94588518       0.00000589      -0.00000164       0.00000164      -3.29544830
O        7.93148000       9.90882000       6.25517000      -2.04035091       0.00000059       0.00000325      -0.00000200      -5.10523510       0.00000359       0.00000047       0.00001654      -1.99665189
O        9.91452000       7.92578000       6.25517000      -5.10523367      -0.00000353      -0.00001037      -0.00000503      -2.04035211      -0.00000027      -0.00001072      -0.00001052      -1.99666011
O        7.93147000       7.92578000       8.36140000      -1.94587994      -0.00000186      -0.00001095      -0.00000020      -1.94587016      -0.00000914      -0.00000004       0.00000359      -3.29531431
O        7.93147000       9.90882000      10.55920000      -2.04035473       0.00000302       0.00000017       0.00000120      -5.10510445      -0.00000394      -0.00000114       0.00000121      -1.99667430
O        9.91452000       7.92578000      10.55920000      -5.10509491      -0.00000031      -0.00001066       0.00000114      -2.04035115       0.00000275      -0.00002218      -0.00000587      -1.99668837
O        7.93147000       7.92578000      -0.24664700      -1.94581926      -0.00000048      -0.00000147       0.00000178      -1.94581294      -0.00000056      -0.00000033      -0.00000081      -3.29561901
