135
Lattice="11.898253856589696 0.0 0.0 0.0 11.898253856589696 0.0 0.0 0.0 12.912076929577747" Properties=species:S:1:pos:R:3:MACE_becs:R:9 timestep=75000 time_ps=150.0 lammps_kinetic_energy=2.01336873449213e-05 lammps_total_energy=-1073.74863853829 temperature_K=0.0011623954011225 lammps_pressure_bar=398.063570499156 lammps_stress_bar="7945.32925006024 0.0336504974825279 2.18658941376964 0.0336504974825279 7945.48058876905 -2.15388759127603 2.18658941376964 -2.15388759127603 -14696.6191273318" MACE_electric_field="0.0 0.0 -6.67922364254966e-17" MACE_polarization="3.4949850942211924e-06 -3.5176747132936725e-06 0.030263110995292664" MACE_polarizability="5.23574686050415 -9.355853336501241e-08 -6.617168401135132e-05 -9.221279384519221e-08 5.235748767852783 6.552345439558849e-05 -6.617554026888683e-05 6.551733531523496e-05 4.584632873535156" pbc="T T T"
Ba       1.98235000       1.97665000       0.06988800       2.75957870      -0.00000091      -0.00000517      -0.00000063       2.75958204       0.00001414      -0.00001067      -0.00000816       3.09201479
Ba       1.98235000       1.97665000       4.37391000       2.75960255       0.00000028       0.00000802       0.00000031       2.75960159       0.00001867       0.00001787       0.00000760       3.09199595
Ba       1.98235000       1.97665000       8.67794000       2.75963569      -0.00000054      -0.00001588      -0.00000097       2.75963140      -0.00000467      -0.00001000      -0.00000384       3.09205198
Ba       1.98235000       5.94273000       0.06988760       2.75957441       0.00000165      -0.00000799       0.00000361       2.75957489       0.00001190      -0.00000806       0.00000559       3.09200907
Ba       1.98235000       5.94274000       4.37391000       2.75960159      -0.00000011       0.00000997       0.00000039       2.75959158       0.00000638       0.00001242      -0.00000524       3.09200144
Ba       1.98235000       5.94274000       8.67794000       2.75963545       0.00000052      -0.00002030      -0.00000145       2.75963020       0.00000516      -0.00000883       0.00000330       3.09203529
Ba       1.98235000       9.90882000       0.06988780       2.75956345       0.00000163      -0.00000271      -0.00000023       2.75957441       0.00000456      -0.00000407       0.00001430       3.09202099
Ba       1.98235000       9.90882000       4.37391000       2.75960875       0.00000282       0.00000554       0.00000011       2.75960779      -0.00000359       0.00000997      -0.00000687       3.09199619
Ba       1.98235000       9.90882000       8.67794000       2.75963330      -0.00000047      -0.00001895       0.00000425       2.75963402       0.00001311      -0.00000612       0.00001179       3.09204578
Ba       5.94844000       1.97665000       0.06988760       2.75957823      -0.00000040      -0.00001464       0.00000077       2.75958204       0.00000224      -0.00000250      -0.00000968       3.09200311
Ba       5.94844000       1.97665000       4.37391000       2.75959778      -0.00000160      -0.00000930      -0.00000077       2.75960135       0.00001334      -0.00000440       0.00001154       3.09200811
Ba       5.94844000       1.97665000       8.67794000       2.75963068       0.00000177       0.00000229       0.00000063       2.75963497       0.00000765       0.00001625       0.00000076       3.09204483
Ba       5.94844000       5.94273000       0.06988810       2.75957108       0.00000049      -0.00001145      -0.00000017       2.75957346       0.00001303      -0.00001054       0.00001451       3.09200525
Ba       5.94844000       5.94274000       4.37391000       2.75959730      -0.00000866      -0.00001927       0.00000106       2.75958967       0.00000608      -0.00000885      -0.00000574       3.09199929
Ba       5.94844000       5.94274000       8.67794000       2.75963116      -0.00000374       0.00000630      -0.00000085       2.75962591       0.00001295       0.00000679       0.00000405       3.09203768
Ba       5.94844000       9.90882000       0.06988730       2.75956917      -0.00000025      -0.00001593       0.00000306       2.75958180       0.00000924      -0.00000203       0.00000599       3.09200716
Ba       5.94844000       9.90882000       4.37392000       2.75960135       0.00000553      -0.00001795      -0.00000208       2.75961137       0.00001604      -0.00001889       0.00001310       3.09198546
Ba       5.94844000       9.90882000       8.67794000       2.75963497       0.00000596       0.00000546       0.00000211       2.75963593       0.00000932       0.00000368       0.00000584       3.09203672
Ba       9.91452000       1.97665000       0.06988750       2.75957489       0.00000161       0.00000272      -0.00000113       2.75957584       0.00000058       0.00000475      -0.00000906       3.09202433
Ba       9.91452000       1.97665000       4.37391000       2.75960302      -0.00000013      -0.00001186      -0.00000017       2.75960493       0.00002096      -0.00000610       0.00001119       3.09200287
Ba       9.91452000       1.97665000       8.67794000       2.75962162      -0.00000157      -0.00000497      -0.00000207       2.75962400      -0.00000229      -0.00000589      -0.00000467       3.09206057
Ba       9.91452000       5.94273000       0.06988860       2.75957870      -0.00000036      -0.00000026      -0.00000327       2.75957012       0.00000979       0.00000270       0.00001063       3.09202147
Ba       9.91452000       5.94274000       4.37391000       2.75960398       0.00000115      -0.00001317      -0.00000180       2.75959301       0.00000755       0.00000409      -0.00001182       3.09200621
Ba       9.91452000       5.94274000       8.67794000       2.75962877       0.00000163      -0.00000443       0.00000205       2.75962877       0.00000927      -0.00000179       0.00000340       3.09204483
Ba       9.91452000       9.90882000       0.06988780       2.75956869       0.00000193      -0.00000169       0.00000276       2.75957680       0.00000366       0.00000464       0.00001631       3.09202719
Ba       9.91452000       9.90882000       4.37391000       2.75960541      -0.00000232      -0.00001127      -0.00000063       2.75961208      -0.00000297      -0.00000340      -0.00000599       3.09199619
Ba       9.91452000       9.90882000       8.67794000       2.75962257      -0.00000158      -0.00001276      -0.00000309       2.75963378       0.00000937      -0.00000321      -0.00000073       3.09206152
Ti      -0.00067630      -0.00640403       2.28322000       6.51187754       0.00000034      -0.00015918      -0.00000185       6.51188183       0.00014270      -0.00020339       0.00018724       3.68291450
Ti      -0.00067584      -0.00640483       6.58724000       6.51192856      -0.00000026      -0.00014923       0.00000111       6.51194382       0.00013922      -0.00020227       0.00018623       3.68298674
Ti      -0.00067557      -0.00640471      10.89130000       6.51178074      -0.00000126      -0.00014134      -0.00000244       6.51175642       0.00015324      -0.00019651       0.00017953       3.68277311
Ti      -0.00067651       3.95968000       2.28322000       6.51188850      -0.00000471      -0.00015292      -0.00000733       6.51187897       0.00014319      -0.00019116       0.00016262       3.68289614
Ti      -0.00067602       3.95968000       6.58724000       6.51195288       0.00000248      -0.00015832       0.00000151       6.51194191       0.00014569      -0.00020902       0.00020409       3.68295097
Ti      -0.00067601       3.95968000      10.89130000       6.51178455       0.00000236      -0.00014092      -0.00000549       6.51176214       0.00014244      -0.00019407       0.00018217       3.68278408
Ti      -0.00067581       7.92576000       2.28322000       6.51188087       0.00000576      -0.00015309       0.00000563       6.51187611       0.00014987      -0.00021743       0.00018766       3.68291926
Ti      -0.00067552       7.92576000       6.58724000       6.51194000      -0.00000205      -0.00015808      -0.00000067       6.51195431       0.00016633      -0.00021946       0.00023056       3.68296766
Ti      -0.00067524       7.92576000      10.89130000       6.51177216      -0.00000576      -0.00015073      -0.00000495       6.51173878       0.00014528      -0.00021342       0.00019266       3.68277597
Ti       3.96541000      -0.00640515       2.28322000       6.51186657       0.00000654      -0.00014361       0.00000238       6.51187563       0.00015436      -0.00019603       0.00018444       3.68292999
Ti       3.96541000      -0.00640536       6.58724000       6.51193810       0.00000255      -0.00014850       0.00000070       6.51194191       0.00014083      -0.00019602       0.00019309       3.68298864
Ti       3.96541000      -0.00640554      10.89130000       6.51174402      -0.00000118      -0.00014326       0.00000163       6.51176548       0.00016787      -0.00019590       0.00019775       3.68278527
Ti       3.96541000       3.95968000       2.28322000       6.51187706      -0.00000241      -0.00013594       0.00000049       6.51188898       0.00013534      -0.00020257       0.00018925       3.68295622
Ti       3.96541000       3.95968000       6.58724000       6.51196861       0.00000118      -0.00015040      -0.00000328       6.51195240       0.00015167      -0.00019703       0.00019885       3.68296051
Ti       3.96541000       3.95968000      10.89130000       6.51175213       0.00000335      -0.00013646       0.00000736       6.51175547       0.00015086      -0.00020312       0.00018538       3.68278265
Ti       3.96541000       7.92576000       2.28322000       6.51188755      -0.00000319      -0.00014462      -0.00000314       6.51186371       0.00014483      -0.00018809       0.00020061       3.68294430
Ti       3.96541000       7.92576000       6.58724000       6.51195002      -0.00000311      -0.00016912      -0.00000166       6.51195908       0.00015414      -0.00021675       0.00021329       3.68296051
Ti       3.96541000       7.92576000      10.89130000       6.51175928       0.00000247      -0.00014874       0.00000021       6.51174116       0.00013720      -0.00019263       0.00019817       3.68278694
Ti       7.93149000      -0.00640623       2.28322000       6.51187754      -0.00000094      -0.00014548       0.00000514       6.51189041       0.00015206      -0.00017508       0.00018014       3.68291283
Ti       7.93149000      -0.00640659       6.58724000       6.51195192       0.00000280      -0.00013667       0.00000193       6.51192951       0.00014508      -0.00016191       0.00020154       3.68297577
Ti       7.93149000      -0.00640667      10.89130000       6.51175880      -0.00000492      -0.00015497      -0.00000221       6.51175165       0.00015813      -0.00017256       0.00019034       3.68276882
Ti       7.93149000       3.95968000       2.28322000       6.51186752      -0.00000956      -0.00014520      -0.00000536       6.51187372       0.00014725      -0.00017819       0.00017168       3.68295193
Ti       7.93149000       3.95968000       6.58724000       6.51194811      -0.00000519      -0.00015196      -0.00000107       6.51194668       0.00015188      -0.00017251       0.00019843       3.68298244
Ti       7.93149000       3.95968000      10.89130000       6.51175022      -0.00000175      -0.00015953      -0.00000059       6.51176500       0.00014237      -0.00018685       0.00016977       3.68277192
Ti       7.93149000       7.92576000       2.28322000       6.51186275       0.00000658      -0.00013677       0.00000622       6.51187420       0.00014241      -0.00017292       0.00021314       3.68291759
Ti       7.93149000       7.92576000       6.58724000       6.51192570       0.00000130      -0.00015345       0.00000147       6.51194477       0.00017063      -0.00019108       0.00022823       3.68295908
Ti       7.93149000       7.92576000      10.89130000       6.51175022       0.00000244      -0.00015843       0.00000188       6.51173830       0.00013300      -0.00018345       0.00019222       3.68277264
O       -0.00070276       1.97667000       2.04948000      -1.90133727       0.00000201      -0.00001224       0.00000096      -5.39902115      -0.00005896      -0.00000319      -0.00014546      -1.83550811
O        1.98233000      -0.00637941       2.04948000      -5.39901447      -0.00000135       0.00006516       0.00000299      -1.90134335       0.00001540       0.00016411       0.00000223      -1.83551788
O       -0.00069627      -0.00638561       4.10165000      -1.97112179       0.00000025       0.00011043      -0.00000160      -1.97112370      -0.00009971       0.00003673      -0.00003700      -3.10392952
O       -0.00070696       1.97667000       6.35351000      -1.90133083      -0.00000227      -0.00001477      -0.00000101      -5.39906311      -0.00006260      -0.00000035      -0.00015874      -1.83550429
O        1.98233000      -0.00637493       6.35351000      -5.39907169      -0.00000056       0.00006591       0.00000201      -1.90133429       0.00001317       0.00016121       0.00000084      -1.83550692
O       -0.00069659      -0.00638497       8.40568000      -1.97114766      -0.00000044       0.00010170      -0.00000077      -1.97115064      -0.00010531       0.00004090      -0.00003884      -3.10378337
O       -0.00070358       1.97667000      10.65750000      -1.90133798       0.00000057      -0.00001574       0.00000051      -5.39893675      -0.00006085      -0.00000405      -0.00014786      -1.83551550
O        1.98233000      -0.00637830      10.65750000      -5.39891720       0.00000168       0.00006959       0.00000272      -1.90133691       0.00000893       0.00016351      -0.00000074      -1.83551300
O       -0.00069584      -0.00638594      -0.20237300      -1.97106957      -0.00000147       0.00010770      -0.00000201      -1.97107077      -0.00010680       0.00003704      -0.00003539      -3.10396338
O       -0.00070280       5.94275000       2.04948000      -1.90133023       0.00000036      -0.00000997      -0.00000137      -5.39901924      -0.00006176      -0.00000135      -0.00014646      -1.83550501
O        1.98233000       3.95971000       2.04948000      -5.39902306       0.00000176       0.00006720       0.00000477      -1.90133643       0.00001306       0.00016251       0.00000182      -1.83551097
O       -0.00069611       3.95970000       4.10165000      -1.97111928      -0.00000015       0.00010790       0.00000032      -1.97112274      -0.00010037       0.00003612      -0.00004024      -3.10392475
O       -0.00070690       5.94276000       6.35351000      -1.90133059      -0.00000236      -0.00001265       0.00000021      -5.39908075      -0.00007284       0.00000085      -0.00018085      -1.83550191
O        1.98233000       3.95971000       6.35351000      -5.39909267      -0.00000013       0.00006650      -0.00000219      -1.90134442       0.00001765       0.00016452       0.00000385      -1.83551049
O       -0.00069646       3.95970000       8.40568000      -1.97114527       0.00000349       0.00010528       0.00000403      -1.97115457      -0.00010408       0.00004186      -0.00003756      -3.10376883
O       -0.00070361       5.94275000      10.65750000      -1.90133142      -0.00000246      -0.00001538       0.00000041      -5.39892578      -0.00005592      -0.00000335      -0.00014238      -1.83550775
O        1.98233000       3.95971000      10.65750000      -5.39891911       0.00000013       0.00006920      -0.00000064      -1.90134621       0.00000721       0.00015978      -0.00000263      -1.83552027
O       -0.00069572       3.95970000      -0.20237300      -1.97106862      -0.00000042       0.00010258       0.00000179      -1.97106910      -0.00009782       0.00003542      -0.00003430      -3.10395622
O       -0.00070288       9.90884000       2.04948000      -1.90134454      -0.00000030      -0.00001145       0.00000067      -5.39902544      -0.00006234      -0.00000181      -0.00016164      -1.83551919
O        1.98233000       7.92579000       2.04948000      -5.39902782       0.00000014       0.00006400       0.00000481      -1.90134811       0.00001791       0.00016345       0.00000633      -1.83551002
O       -0.00069611       7.92578000       4.10165000      -1.97112012      -0.00000193       0.00010547      -0.00000258      -1.97112072      -0.00010775       0.00003762      -0.00003352      -3.10392070
O       -0.00070697       9.90884000       6.35351000      -1.90133905       0.00000337      -0.00001342      -0.00000075      -5.39907217      -0.00006849      -0.00000078      -0.00016300      -1.83550835
O        1.98233000       7.92579000       6.35351000      -5.39907074       0.00000059       0.00007084       0.00000003      -1.90133989       0.00001234       0.00017393      -0.00000219      -1.83551002
O       -0.00069661       7.92578000       8.40568000      -1.97115755      -0.00000074       0.00010610      -0.00000223      -1.97116172      -0.00010920       0.00004152      -0.00004094      -3.10377312
O       -0.00070380       9.90884000      10.65750000      -1.90134323       0.00000164      -0.00001695       0.00000257      -5.39890194      -0.00006818      -0.00000461      -0.00016808      -1.83551943
O        1.98233000       7.92579000      10.65750000      -5.39892292      -0.00000074       0.00007205      -0.00000067      -1.90135479       0.00001395       0.00016453       0.00000074      -1.83551037
O       -0.00069560       7.92578000      -0.20237300      -1.97106159      -0.00000195       0.00010640      -0.00000224      -1.97107553      -0.00010264       0.00003787      -0.00004355      -3.10396457
O        3.96538000       1.97667000       2.04948000      -1.90134835       0.00000328      -0.00001802      -0.00000186      -5.39902401      -0.00006147      -0.00000568      -0.00015293      -1.83550632
O        5.94842000      -0.00637892       2.04948000      -5.39901257      -0.00000042       0.00006325      -0.00000248      -1.90132928       0.00001038       0.00015337      -0.00000055      -1.83550525
O        3.96539000      -0.00638562       4.10165000      -1.97113204      -0.00000031       0.00010114       0.00000233      -1.97112012      -0.00010329       0.00003899      -0.00003955      -3.10392857
O        3.96538000       1.97667000       6.35351000      -1.90134692      -0.00000087      -0.00001384       0.00000009      -5.39907932      -0.00006282      -0.00000070      -0.00016191      -1.83550918
O        5.94842000      -0.00637447       6.35351000      -5.39907455       0.00000045       0.00005719       0.00000064      -1.90133321       0.00001040       0.00014848      -0.00000258      -1.83550024
O        3.96539000      -0.00638506       8.40568000      -1.97116280      -0.00000012       0.00010436       0.00000007      -1.97114682      -0.00010851       0.00003607      -0.00003992      -3.10377932
O        3.96538000       1.97667000      10.65750000      -1.90135670       0.00000044      -0.00001595      -0.00000010      -5.39891720      -0.00006126      -0.00000338      -0.00015284      -1.83551335
O        5.94842000      -0.00637825      10.65750000      -5.39891434       0.00000096       0.00005958      -0.00000347      -1.90132475       0.00001035       0.00015143      -0.00000088      -1.83550060
O        3.96539000      -0.00638598      -0.20237300      -1.97108054       0.00000126       0.00009925       0.00000117      -1.97106242      -0.00011184       0.00003996      -0.00003722      -3.10396624
O        3.96538000       5.94275000       2.04948000      -1.90133858       0.00000436      -0.00001643       0.00000171      -5.39901066      -0.00006335      -0.00000204      -0.00014340      -1.83550286
O        5.94842000       3.95971000       2.04948000      -5.39902210       0.00000117       0.00005993      -0.00000403      -1.90132236       0.00001490       0.00015151       0.00000329      -1.83550251
O        3.96539000       3.95970000       4.10165000      -1.97112846       0.00000167       0.00010021      -0.00000086      -1.97111845      -0.00010599       0.00003836      -0.00004204      -3.10393667
O        3.96538000       5.94276000       6.35351000      -1.90133846      -0.00000005      -0.00001597       0.00000017      -5.39908838      -0.00007039      -0.00000320      -0.00017609      -1.83550549
O        5.94842000       3.95971000       6.35351000      -5.39909315       0.00000185       0.00005993       0.00000007      -1.90133798       0.00001524       0.00015024       0.00000087      -1.83549941
O        3.96539000       3.95970000       8.40568000      -1.97115707       0.00000084       0.00010441       0.00000007      -1.97115362      -0.00010490       0.00003843      -0.00003715      -3.10377169
O        3.96538000       5.94275000      10.65750000      -1.90135098      -0.00000037      -0.00001429      -0.00000155      -5.39891338      -0.00005835      -0.00000132      -0.00014933      -1.83551013
O        5.94842000       3.95971000      10.65750000      -5.39892101       0.00000083       0.00005790      -0.00000025      -1.90133786       0.00000946       0.00014991      -0.00000302      -1.83551526
O        3.96539000       3.95970000      -0.20237300      -1.97108293       0.00000268       0.00010585       0.00000095      -1.97106719      -0.00009697       0.00003717      -0.00003505      -3.10397148
O        3.96538000       9.90884000       2.04948000      -1.90135479      -0.00000675      -0.00001468      -0.00000101      -5.39901638      -0.00006516      -0.00000266      -0.00016229      -1.83551550
O        5.94842000       7.92579000       2.04948000      -5.39902735      -0.00000079       0.00006122      -0.00000390      -1.90133762       0.00001945       0.00015400       0.00000531      -1.83550251
O        3.96539000       7.92578000       4.10165000      -1.97112250       0.00000036       0.00010344       0.00000042      -1.97112441      -0.00010846       0.00003527      -0.00003020      -3.10392380
O        3.96538000       9.90884000       6.35351000      -1.90135217       0.00000114      -0.00001042       0.00000043      -5.39906883      -0.00006838       0.00000367      -0.00016702      -1.83551884
O        5.94841000       7.92579000       6.35351000      -5.39908314      -0.00000029       0.00007242       0.00000139      -1.90133131       0.00001406       0.00017510       0.00000210      -1.83549690
O        3.96539000       7.92578000       8.40568000      -1.97116280      -0.00000131       0.00010794      -0.00000141      -1.97116160      -0.00010872       0.00004070      -0.00003748      -3.10378504
O        3.96538000       9.90884000      10.65750000      -1.90136063       0.00000019      -0.00001638      -0.00000134      -5.39890766      -0.00006943      -0.00000036      -0.00016412      -1.83551908
O        5.94842000       7.92579000      10.65750000      -5.39892006      -0.00000168       0.00005881      -0.00000132      -1.90134740       0.00000974       0.00014949       0.00000192      -1.83551073
O        3.96539000       7.92578000      -0.20237300      -1.97107542      -0.00000442       0.00011070      -0.00000381      -1.97107565      -0.00010198       0.00003851      -0.00003927      -3.10396743
O        7.93147000       1.97667000       2.04948000      -1.90133405      -0.00000065      -0.00001321       0.00000192      -5.39901924      -0.00006137      -0.00000233      -0.00015382      -1.83551049
O        9.91450000      -0.00637905       2.04948000      -5.39901114      -0.00000122       0.00006367       0.00000100      -1.90134621       0.00001061       0.00015576      -0.00000117      -1.83551598
O        7.93147000      -0.00638578       4.10165000      -1.97112036       0.00000332       0.00010598       0.00000337      -1.97112453      -0.00010575       0.00004273      -0.00003697      -3.10393381
O        7.93146000       1.97667000       6.35351000      -1.90133500      -0.00000276      -0.00001517      -0.00000007      -5.39907026      -0.00006450      -0.00000665      -0.00016918      -1.83550882
O        9.91450000      -0.00637467       6.35351000      -5.39906073      -0.00000439       0.00006502      -0.00000139      -1.90133882       0.00001406       0.00015614      -0.00000088      -1.83550596
O        7.93147000      -0.00638551       8.40568000      -1.97114801      -0.00000284       0.00010064      -0.00000169      -1.97115278      -0.00010329       0.00003853      -0.00004275      -3.10378504
O        7.93147000       1.97667000      10.65750000      -1.90134096      -0.00000089      -0.00000815      -0.00000105      -5.39893103      -0.00006063      -0.00000134      -0.00015568      -1.83552122
O        9.91450000      -0.00637799      10.65750000      -5.39893675      -0.00000247       0.00006461       0.00000340      -1.90134192       0.00001341       0.00015615       0.00000215      -1.83551502
O        7.93147000      -0.00638611      -0.20237300      -1.97106671      -0.00000071       0.00010347       0.00000023      -1.97107053      -0.00010518       0.00003838      -0.00003783      -3.10396814
O        7.93147000       5.94275000       2.04948000      -1.90132475       0.00000176      -0.00000999      -0.00000133      -5.39902973      -0.00006467      -0.00000141      -0.00015139      -1.83550453
O        9.91450000       3.95971000       2.04948000      -5.39903164       0.00000037       0.00006196      -0.00000228      -1.90133810       0.00001363       0.00015551       0.00000470      -1.83551168
O        7.93147000       3.95970000       4.10165000      -1.97112298       0.00000302       0.00010620       0.00000038      -1.97112274      -0.00010673       0.00004575      -0.00003680      -3.10395074
O        7.93146000       5.94276000       6.35351000      -1.90133119       0.00000016      -0.00001407       0.00000283      -5.39908743      -0.00007469      -0.00000405      -0.00017733      -1.83549976
O        9.91450000       3.95971000       6.35351000      -5.39906502       0.00000117       0.00006292      -0.00000125      -1.90134883       0.00001716       0.00015734       0.00000480      -1.83551049
O        7.93147000       3.95970000       8.40568000      -1.97115016      -0.00000035       0.00010523       0.00000108      -1.97115850      -0.00010985       0.00004027      -0.00003560      -3.10377836
O        7.93147000       5.94275000      10.65750000      -1.90133572      -0.00000248      -0.00001106      -0.00000025      -5.39892054      -0.00005519      -0.00000134      -0.00014564      -1.83551002
O        9.91450000       3.95971000      10.65750000      -5.39892340       0.00000005       0.00006018      -0.00000136      -1.90134680       0.00000637       0.00015604      -0.00000281      -1.83552432
O        7.93147000       3.95970000      -0.20237300      -1.97106779      -0.00000190       0.00010315      -0.00000048      -1.97106695      -0.00009850       0.00003688      -0.00003320      -3.10396910
O        7.93147000       9.90884000       2.04948000      -1.90134096      -0.00000251      -0.00001188      -0.00000098      -5.39904213      -0.00006616      -0.00000351      -0.00016106      -1.83551145
O        9.91450000       7.92579000       2.04948000      -5.39900684      -0.00000167       0.00006399       0.00000006      -1.90134859       0.00001939       0.00015607       0.00000418      -1.83551276
O        7.93147000       7.92578000       4.10165000      -1.97111917       0.00000550       0.00010762       0.00000550      -1.97112203      -0.00010293       0.00004627      -0.00004014      -3.10393548
O        7.93146000       9.90884000       6.35351000      -1.90133739       0.00000212      -0.00001729      -0.00000225      -5.39906931      -0.00006904      -0.00000756      -0.00016767      -1.83550358
O        9.91450000       7.92579000       6.35351000      -5.39907265       0.00000080       0.00006864      -0.00000081      -1.90133595       0.00000938       0.00016570      -0.00000173      -1.83550978
O        7.93147000       7.92578000       8.40568000      -1.97115302      -0.00000299       0.00011062      -0.00000286      -1.97115517      -0.00011429       0.00003706      -0.00003810      -3.10377312
O        7.93147000       9.90884000      10.65750000      -1.90134108       0.00000376      -0.00000721      -0.00000017      -5.39891529      -0.00007089      -0.00000292      -0.00016777      -1.83551693
O        9.91450000       7.92579000      10.65750000      -5.39891815       0.00000158       0.00006286       0.00000424      -1.90136027       0.00001354       0.00015840      -0.00000059      -1.83552337
O        7.93147000       7.92578000      -0.20237300      -1.97106576       0.00000341       0.00010488       0.00000181      -1.97107637      -0.00010013       0.00003455      -0.00003799      -3.10396814
