135
Lattice="11.898253856589696 0.0 0.0 0.0 11.898253856589696 0.0 0.0 0.0 12.912076929577747" Properties=species:S:1:pos:R:3:MACE_becs:R:9 timestep=81305 time_ps=162.61 lammps_kinetic_energy=0.0990063906698384 lammps_total_energy=-1069.39320067455 temperature_K=5.71602067841725 lammps_pressure_bar=-18286.7907653518 lammps_stress_bar="17773.5471070175 -2887.3288907993 -3193.68878537468 -2887.3288907993 17773.5033446763 3193.79425154529 -3193.68878537468 3193.79425154529 -90407.422747749" MACE_electric_field="0.0 0.0 0.140303728018546" MACE_polarization="0.012665163725614548 -0.012665481306612492 0.004013175144791603" MACE_polarizability="5.6517157554626465 0.13555997610092163 -0.06811057031154633 0.13555996119976044 5.651712417602539 0.0681120827794075 -0.06811061501502991 0.0681120976805687 5.038337230682373" pbc="T T T"
Ba       2.00332000       1.95568000      -0.09498180       2.84539533       0.01138595      -0.00801953       0.01139063       2.84541368       0.00801158      -0.00129783       0.00130185       2.87946367
Ba       2.00332000       1.95568000       4.20904000       2.84539366       0.01138789      -0.00800962       0.01138815       2.84541416       0.00803214      -0.00129959       0.00131602       2.87944269
Ba       2.00332000       1.95568000       8.51307000       2.84538364       0.01138521      -0.00802303       0.01138687       2.84540272       0.00799169      -0.00130960       0.00128305       2.87943459
Ba       2.00332000       5.92176000      -0.09498170       2.84540272       0.01138644      -0.00801556       0.01138783       2.84541035       0.00802096      -0.00129801       0.00130601       2.87946320
Ba       2.00332000       5.92176000       4.20904000       2.84539008       0.01138592      -0.00800892       0.01138661       2.84540653       0.00799821      -0.00129887       0.00128913       2.87943268
Ba       2.00332000       5.92176000       8.51307000       2.84538603       0.01138350      -0.00802887       0.01138805       2.84540224       0.00801326      -0.00130883       0.00130446       2.87941933
Ba       2.00332000       9.88785000      -0.09498180       2.84539747       0.01138699      -0.00801701       0.01138777       2.84541273       0.00800968      -0.00129775       0.00129761       2.87946749
Ba       2.00332000       9.88785000       4.20904000       2.84539270       0.01138611      -0.00801555       0.01138597       2.84539890       0.00801168      -0.00129375       0.00130128       2.87942886
Ba       2.00332000       9.88785000       8.51307000       2.84538889       0.01138581      -0.00802431       0.01138692       2.84539604       0.00802568      -0.00131050       0.00130942       2.87943029
Ba       5.96941000       1.95568000      -0.09498190       2.84539795       0.01138310      -0.00801921       0.01138768       2.84541273       0.00801207      -0.00129717       0.00130572       2.87945104
Ba       5.96941000       1.95568000       4.20904000       2.84539747       0.01138651      -0.00799318       0.01138505       2.84539604       0.00802900      -0.00128627       0.00131345       2.87943363
Ba       5.96941000       1.95568000       8.51307000       2.84538794       0.01138596      -0.00801467       0.01138330       2.84539032       0.00799584      -0.00130601       0.00128362       2.87942529
Ba       5.96941000       5.92176000      -0.09498180       2.84540415       0.01138453      -0.00801675       0.01138575       2.84540939       0.00802023      -0.00129890       0.00130934       2.87944794
Ba       5.96941000       5.92176000       4.20904000       2.84539723       0.01138661      -0.00799483       0.01138752       2.84539461       0.00799427      -0.00128709       0.00129326       2.87942934
Ba       5.96941000       5.92176000       8.51307000       2.84539127       0.01138459      -0.00801530       0.01138391       2.84539104       0.00801660      -0.00130808       0.00130280       2.87941027
Ba       5.96941000       9.88785000      -0.09498180       2.84540462       0.01138457      -0.00801543       0.01138383       2.84541225       0.00800708      -0.00130162       0.00129672       2.87945676
Ba       5.96941000       9.88785000       4.20904000       2.84540105       0.01138590      -0.00799836       0.01138433       2.84538627       0.00800938      -0.00128924       0.00129773       2.87942958
Ba       5.96941000       9.88785000       8.51307000       2.84539580       0.01138881      -0.00801222       0.01138348       2.84538460       0.00802965      -0.00131049       0.00130900       2.87941933
Ba       9.93549000       1.95568000      -0.09498180       2.84539700       0.01138125      -0.00801099       0.01138200       2.84540057       0.00801250      -0.00130186       0.00130195       2.87945366
Ba       9.93549000       1.95568000       4.20904000       2.84539676       0.01138419      -0.00803515       0.01138345       2.84540033       0.00803049      -0.00131708       0.00131571       2.87943363
Ba       9.93549000       1.95568000       8.51307000       2.84539127       0.01138639      -0.00798488       0.01138672       2.84539461       0.00799209      -0.00128609       0.00128373       2.87941933
Ba       9.93549000       5.92176000      -0.09498170       2.84540415       0.01138454      -0.00801085       0.01138275       2.84540009       0.00802259      -0.00129762       0.00130450       2.87945366
Ba       9.93549000       5.92176000       4.20904000       2.84539890       0.01138300      -0.00803321       0.01138572       2.84539843       0.00799565      -0.00131740       0.00129210       2.87942719
Ba       9.93549000       5.92176000       8.51307000       2.84539127       0.01138354      -0.00799000       0.01138637       2.84539127       0.00801306      -0.00129055       0.00130452       2.87941623
Ba       9.93549000       9.88785000      -0.09498180       2.84540462       0.01138698      -0.00800871       0.01138275       2.84540319       0.00801231      -0.00130253       0.00129082       2.87946081
Ba       9.93549000       9.88785000       4.20904000       2.84540200       0.01138616      -0.00803896       0.01138561       2.84539032       0.00801085      -0.00131602       0.00130245       2.87942839
Ba       9.93549000       9.88785000       8.51307000       2.84539795       0.01139023      -0.00798487       0.01138908       2.84538794       0.00802732      -0.00129073       0.00131383       2.87942076
Ti       0.06443260      -0.07151440       2.14237000       6.71560478       0.32972261      -0.10986751       0.32971492       6.71554470       0.10985459      -0.16717954       0.16718368       5.19297266
Ti       0.06443250      -0.07151410       6.44639000       6.71557045       0.32972741      -0.10985312       0.32972914       6.71557713       0.10985968      -0.16717857       0.16718689       5.19303226
Ti       0.06443280      -0.07151450      10.75040000       6.71561241       0.32972342      -0.10984944       0.32971904       6.71556854       0.10985582      -0.16714409       0.16716266       5.19299507
Ti       0.06443270       3.89457000       2.14237000       6.71559334       0.32972473      -0.10986324       0.32971898       6.71557808       0.10986274      -0.16718134       0.16718322       5.19298267
Ti       0.06443250       3.89457000       6.44639000       6.71557045       0.32973045      -0.10985826       0.32972875       6.71557236       0.10985691      -0.16718769       0.16716573       5.19300985
Ti       0.06443280       3.89457000      10.75040000       6.71558952       0.32973102      -0.10985287       0.32972276       6.71562290       0.10984169      -0.16715638       0.16716421       5.19301605
Ti       0.06443270       7.86065000       2.14237000       6.71558666       0.32971942      -0.10986120       0.32971725       6.71557331       0.10987163      -0.16719499       0.16719376       5.19297791
Ti       0.06443240       7.86066000       6.44639000       6.71557522       0.32972580      -0.10986415       0.32972538       6.71557999       0.10987264      -0.16718122       0.16718373       5.19304609
Ti       0.06443280       7.86065000      10.75040000       6.71560621       0.32972524      -0.10985443       0.32971945       6.71560192       0.10985128      -0.16715777       0.16716318       5.19301796
Ti       4.03052000      -0.07151450       2.14237000       6.71556759       0.32972109      -0.10985913       0.32972401       6.71553087       0.10987155      -0.16717780       0.16719127       5.19296312
Ti       4.03052000      -0.07151410       6.44639000       6.71560717       0.32972831      -0.10986567       0.32973421       6.71557856       0.10986599      -0.16718368       0.16717920       5.19300508
Ti       4.03052000      -0.07151450      10.75040000       6.71557999       0.32972768      -0.10984275       0.32972866       6.71554613       0.10984296      -0.16716695       0.16718075       5.19299507
Ti       4.03052000       3.89457000       2.14237000       6.71557522       0.32972947      -0.10985637       0.32972682       6.71556902       0.10986695      -0.16717538       0.16718292       5.19296837
Ti       4.03052000       3.89457000       6.44639000       6.71560669       0.32972941      -0.10987037       0.32972410       6.71557760       0.10986307      -0.16717419       0.16717987       5.19299030
Ti       4.03052000       3.89457000      10.75040000       6.71558952       0.32972839      -0.10985018       0.32973439       6.71558332       0.10983905      -0.16716905       0.16714703       5.19301224
Ti       4.03052000       7.86065000       2.14237000       6.71556616       0.32972211      -0.10987327       0.32972324       6.71555424       0.10987410      -0.16717637       0.16719103       5.19297409
Ti       4.03052000       7.86066000       6.44639000       6.71561146       0.32972279      -0.10986435       0.32972801       6.71558285       0.10986727      -0.16718571       0.16717947       5.19300652
Ti       4.03052000       7.86065000      10.75040000       6.71558809       0.32972550      -0.10984863       0.32972634       6.71557617       0.10983917      -0.16715683       0.16715232       5.19300890
Ti       7.99660000      -0.07151440       2.14237000       6.71556759       0.32972902      -0.10986508       0.32972828       6.71553326       0.10987206      -0.16718267       0.16718940       5.19298840
Ti       7.99660000      -0.07151420       6.44639000       6.71555710       0.32973224      -0.10986335       0.32973331       6.71557665       0.10986653      -0.16717494       0.16717376       5.19298935
Ti       7.99660000      -0.07151450      10.75040000       6.71559525       0.32972974      -0.10985519       0.32972959       6.71554232       0.10985105      -0.16715130       0.16717573       5.19302750
Ti       7.99660000       3.89457000       2.14237000       6.71557140       0.32972670      -0.10986821       0.32972196       6.71557808       0.10986418      -0.16717607       0.16719042       5.19301462
Ti       7.99660000       3.89457000       6.44639000       6.71554804       0.32973573      -0.10985473       0.32973054       6.71556950       0.10986697      -0.16717678       0.16717473       5.19297028
Ti       7.99660000       3.89457000      10.75040000       6.71558571       0.32972714      -0.10983835       0.32972652       6.71558952       0.10985261      -0.16715704       0.16716149       5.19303989
Ti       7.99660000       7.86065000       2.14237000       6.71557426       0.32972243      -0.10986385       0.32972360       6.71555519       0.10986596      -0.16717875       0.16721024       5.19299889
Ti       7.99660000       7.86066000       6.44639000       6.71557140       0.32972780      -0.10985740       0.32973167       6.71558094       0.10986082      -0.16716799       0.16717705       5.19297028
Ti       7.99660000       7.86065000      10.75040000       6.71558475       0.32972515      -0.10984409       0.32972634       6.71557856       0.10985138      -0.16716304       0.16716765       5.19305706
O       -0.03661620       2.02314000       2.13626000      -1.78532648      -0.25069726       0.00378894      -0.10486743      -5.51810646      -0.03485705       0.00084458      -0.14874271      -1.84500742
O        1.93587000       0.02953450       2.13626000      -5.51809978      -0.10486430       0.03485534      -0.25069326      -1.78533530      -0.00378707       0.14873528      -0.00084214      -1.84501815
O       -0.00454990      -0.00253184       4.24390000      -2.25753188       0.01445295       0.07922903       0.01445481      -2.25753117      -0.07923759       0.01889748      -0.01890900      -4.38240528
O       -0.03661760       2.02314000       6.44028000      -1.78532660      -0.25070199       0.00379039      -0.10487045      -5.51808834      -0.03485532       0.00084284      -0.14873257      -1.84502411
O        1.93587000       0.02953590       6.44028000      -5.51808643      -0.10486593       0.03485782      -0.25069907      -1.78533101      -0.00378803       0.14873312      -0.00084194      -1.84502578
O       -0.00454987      -0.00253186       8.54793000      -2.25751972       0.01445754       0.07922121       0.01445881      -2.25751638      -0.07922566       0.01890060      -0.01889967      -4.38245153
O       -0.03661640       2.02314000      10.74430000      -1.78533125      -0.25069755       0.00378732      -0.10486889      -5.51812458      -0.03485307       0.00084407      -0.14872132      -1.84501481
O        1.93587000       0.02953470      10.74430000      -5.51811743      -0.10486528       0.03485266      -0.25069225      -1.78533900      -0.00379072       0.14872305      -0.00084359      -1.84502125
O       -0.00454982      -0.00253189      -0.06012690      -2.25756764       0.01444632       0.07922392       0.01444597      -2.25756717      -0.07921689       0.01890523      -0.01889036      -4.38235760
O       -0.03661620       5.98922000       2.13626000      -1.78531921      -0.25069869       0.00378952      -0.10486655      -5.51810455      -0.03485499       0.00084390      -0.14874256      -1.84500027
O        1.93587000       3.99562000       2.13626000      -5.51809645      -0.10486831       0.03485505      -0.25069308      -1.78533530      -0.00378456       0.14873871      -0.00084321      -1.84501743
O       -0.00454984       3.96355000       4.24390000      -2.25753260       0.01446350       0.07923655       0.01446241      -2.25752783      -0.07924037       0.01890660      -0.01890729      -4.38239670
O       -0.03661760       5.98922000       6.44028000      -1.78534102      -0.25069678       0.00378662      -0.10486747      -5.51811838      -0.03485706       0.00084338      -0.14872801      -1.84503984
O        1.93587000       3.99562000       6.44028000      -5.51809311      -0.10486823       0.03485655      -0.25069630      -1.78533614      -0.00379260       0.14873369      -0.00084418      -1.84503627
O       -0.00454987       3.96355000       8.54793000      -2.25752854       0.01444866       0.07921996       0.01445058      -2.25752354      -0.07921633       0.01889282      -0.01890526      -4.38245296
O       -0.03661640       5.98922000      10.74430000      -1.78532362      -0.25069988       0.00378690      -0.10486747      -5.51811838      -0.03485240       0.00084494      -0.14872216      -1.84500098
O        1.93587000       3.99562000      10.74430000      -5.51811028      -0.10486831       0.03485284      -0.25069350      -1.78533363      -0.00378983       0.14872308      -0.00084636      -1.84501791
O       -0.00454978       3.96355000      -0.06012690      -2.25755858       0.01445459       0.07922302       0.01445558      -2.25755787      -0.07922545       0.01890279      -0.01889887      -4.38236713
O       -0.03661620       9.95531000       2.13626000      -1.78533244      -0.25070202       0.00378859      -0.10486860      -5.51807261      -0.03485454       0.00084416      -0.14873838      -1.84501135
O        1.93587000       7.96170000       2.13626000      -5.51810408      -0.10486483       0.03485554      -0.25069198      -1.78534472      -0.00378995       0.14873493      -0.00084362      -1.84502101
O       -0.00454989       7.92964000       4.24390000      -2.25753069       0.01445624       0.07923226       0.01445498      -2.25753522      -0.07924650       0.01890349      -0.01892278      -4.38240433
O       -0.03661760       9.95531000       6.44028000      -1.78531909      -0.25069925       0.00378658      -0.10486931      -5.51810837      -0.03485779       0.00084034      -0.14873484      -1.84501600
O        1.93587000       7.96171000       6.44028000      -5.51809502      -0.10486732       0.03485867      -0.25069156      -1.78533769      -0.00378718       0.14873111      -0.00084179      -1.84502745
O       -0.00454982       7.92964000       8.54793000      -2.25751972       0.01444920       0.07923372       0.01445037      -2.25752664      -0.07922285       0.01890652      -0.01888987      -4.38245773
O       -0.03661650       9.95531000      10.74430000      -1.78533387      -0.25070107       0.00378759      -0.10486913      -5.51809883      -0.03485103       0.00084286      -0.14872944      -1.84501553
O        1.93587000       7.96170000      10.74430000      -5.51811314      -0.10486583       0.03485063      -0.25069028      -1.78533936      -0.00378325       0.14872357      -0.00084262      -1.84501898
O       -0.00454982       7.92964000      -0.06012690      -2.25755644       0.01445680       0.07922586       0.01445913      -2.25756383      -0.07922795       0.01890086      -0.01890809      -4.38236237
O        3.92947000       2.02314000       2.13626000      -1.78533077      -0.25069737       0.00379166      -0.10487080      -5.51810265      -0.03485620       0.00084172      -0.14874111      -1.84501064
O        5.90195000       0.02953450       2.13626000      -5.51811504      -0.10486867       0.03485679      -0.25070333      -1.78532004      -0.00378457       0.14873584      -0.00084194      -1.84500003
O        3.96153000      -0.00253186       4.24390000      -2.25753021       0.01445864       0.07923555       0.01445983      -2.25753260      -0.07923527       0.01890840      -0.01890691      -4.38240337
O        3.92947000       2.02314000       6.44028000      -1.78532434      -0.25069931       0.00378337      -0.10486902      -5.51809454      -0.03485524       0.00084108      -0.14873198      -1.84502935
O        5.90195000       0.02953590       6.44028000      -5.51812220      -0.10486970       0.03485652      -0.25070748      -1.78532720      -0.00378858       0.14873040      -0.00084297      -1.84502447
O        3.96153000      -0.00253185       8.54793000      -2.25752640       0.01445837       0.07922746       0.01445852      -2.25752306      -0.07922858       0.01890365      -0.01889763      -4.38244772
O        3.92947000       2.02314000      10.74430000      -1.78533089      -0.25069764       0.00378753      -0.10486993      -5.51811218      -0.03485164       0.00084212      -0.14872012      -1.84501481
O        5.90195000       0.02953470      10.74430000      -5.51812553      -0.10486870       0.03485103      -0.25070426      -1.78532577      -0.00378881       0.14871505      -0.00084375      -1.84500456
O        3.96153000      -0.00253189      -0.06012690      -2.25756788       0.01445346       0.07922620       0.01445354      -2.25756550      -0.07922966       0.01890229      -0.01890815      -4.38234806
O        3.92947000       5.98922000       2.13626000      -1.78532076      -0.25069460       0.00378815      -0.10486825      -5.51810122      -0.03485687       0.00084138      -0.14874291      -1.84500217
O        5.90195000       3.99562000       2.13626000      -5.51811218      -0.10487077       0.03485591      -0.25070062      -1.78532076      -0.00378654       0.14873534      -0.00084291      -1.84500289
O        3.96153000       3.96355000       4.24390000      -2.25753951       0.01443853       0.07923277       0.01443680      -2.25753808      -0.07923649       0.01890004      -0.01890176      -4.38240242
O        3.92947000       5.98922000       6.44028000      -1.78533459      -0.25068754       0.00378697      -0.10486569      -5.51811981      -0.03485536       0.00084029      -0.14872889      -1.84504354
O        5.90195000       3.99562000       6.44028000      -5.51812363      -0.10486954       0.03485793      -0.25069878      -1.78533137      -0.00378881       0.14872773      -0.00084543      -1.84503531
O        3.96153000       3.96355000       8.54793000      -2.25752640       0.01445832       0.07922328       0.01445585      -2.25752258      -0.07921635       0.01890305      -0.01890251      -4.38244629
O        3.92947000       5.98922000      10.74430000      -1.78532290      -0.25069937       0.00378611      -0.10486936      -5.51811361      -0.03485326       0.00084323      -0.14872143      -1.84500074
O        5.90195000       3.99562000      10.74430000      -5.51812220      -0.10486987       0.03485123      -0.25070748      -1.78532100      -0.00378883       0.14871377      -0.00084532      -1.84500217
O        3.96153000       3.96355000      -0.06012690      -2.25756311       0.01444988       0.07922513       0.01444636      -2.25756073      -0.07922997       0.01890119      -0.01890348      -4.38235569
O        3.92947000       9.95531000       2.13626000      -1.78533435      -0.25069737       0.00378877      -0.10486938      -5.51806450      -0.03485483       0.00084284      -0.14873947      -1.84501243
O        5.90195000       7.96170000       2.13626000      -5.51811361      -0.10486750       0.03485543      -0.25070062      -1.78532970      -0.00379024       0.14873280      -0.00084301      -1.84500766
O        3.96153000       7.92964000       4.24390000      -2.25752902       0.01445730       0.07923489       0.01445743      -2.25753856      -0.07924065       0.01890235      -0.01891143      -4.38241720
O        3.92947000       9.95531000       6.44028000      -1.78531778      -0.25069642       0.00378297      -0.10486819      -5.51811600      -0.03485798       0.00084007      -0.14873348      -1.84501839
O        5.90195000       7.96171000       6.44028000      -5.51813030      -0.10487098       0.03485744      -0.25070027      -1.78533340      -0.00378686       0.14872976      -0.00084224      -1.84502697
O        3.96153000       7.92964000       8.54793000      -2.25752139       0.01445374       0.07922935       0.01445169      -2.25752640      -0.07921982       0.01891059      -0.01888673      -4.38245440
O        3.92947000       9.95531000      10.74430000      -1.78533316      -0.25070065       0.00378635      -0.10486972      -5.51807117      -0.03485039       0.00084190      -0.14873257      -1.84501541
O        5.90195000       7.96170000      10.74430000      -5.51812172      -0.10486844       0.03484963      -0.25070152      -1.78532565      -0.00378476       0.14871176      -0.00084151      -1.84500635
O        3.96153000       7.92964000      -0.06012700      -2.25755715       0.01445650       0.07922771       0.01445728      -2.25756359      -0.07922813       0.01889750      -0.01890666      -4.38236141
O        7.89555000       2.02314000       2.13626000      -1.78532910      -0.25070167       0.00378810      -0.10487109      -5.51810646      -0.03485711       0.00084169      -0.14874429      -1.84500611
O        9.86804000       0.02953450       2.13626000      -5.51810169      -0.10486556       0.03485893      -0.25069189      -1.78532875      -0.00378833       0.14873280      -0.00084277      -1.84500766
O        7.92762000      -0.00253184       4.24390000      -2.25752974       0.01445789       0.07923549       0.01446001      -2.25753164      -0.07923437       0.01890305      -0.01890519      -4.38239479
O        7.89555000       2.02314000       6.44028000      -1.78533030      -0.25070304       0.00378782      -0.10487018      -5.51808453      -0.03485403       0.00084388      -0.14873283      -1.84503698
O        9.86803000       0.02953590       6.44028000      -5.51810789      -0.10487118       0.03485512      -0.25070551      -1.78532350      -0.00378893       0.14873558      -0.00084251      -1.84502637
O        7.92762000      -0.00253183       8.54793000      -2.25753045       0.01445615       0.07922518       0.01445633      -2.25752354      -0.07922387       0.01890693      -0.01888821      -4.38245153
O        7.89555000       2.02314000      10.74430000      -1.78533244      -0.25070241       0.00379178      -0.10487084      -5.51811981      -0.03485206       0.00084707      -0.14872211      -1.84501147
O        9.86804000       0.02953470      10.74430000      -5.51811647      -0.10486594       0.03484866      -0.25069439      -1.78533244      -0.00378750       0.14871472      -0.00084410      -1.84501863
O        7.92762000      -0.00253186      -0.06012690      -2.25756454       0.01446015       0.07922477       0.01446161      -2.25755763      -0.07922776       0.01889688      -0.01890374      -4.38235426
O        7.89555000       5.98922000       2.13626000      -1.78532100      -0.25070003       0.00378736      -0.10486851      -5.51809788      -0.03485609       0.00084076      -0.14874482      -1.84499621
O        9.86804000       3.99562000       2.13626000      -5.51810169      -0.10486725       0.03485978      -0.25068939      -1.78532696      -0.00378771       0.14873496      -0.00084457      -1.84501076
O        7.92762000       3.96355000       4.24390000      -2.25753212       0.01445756       0.07923497       0.01445721      -2.25752997      -0.07923993       0.01889777      -0.01890368      -4.38239956
O        7.89555000       5.98922000       6.44028000      -1.78534389      -0.25069743       0.00378947      -0.10486884      -5.51811504      -0.03485401       0.00084415      -0.14872624      -1.84504914
O        9.86803000       3.99562000       6.44028000      -5.51811504      -0.10487175       0.03485641      -0.25070375      -1.78532910      -0.00378879       0.14873838      -0.00084514      -1.84503245
O        7.92762000       3.96355000       8.54793000      -2.25752735       0.01446060       0.07921720       0.01446247      -2.25752592      -0.07921934       0.01889677      -0.01889746      -4.38245010
O        7.89555000       5.98922000      10.74430000      -1.78532577      -0.25069922       0.00378882      -0.10486962      -5.51811123      -0.03485290       0.00084747      -0.14872210      -1.84499860
O        9.86804000       3.99562000      10.74430000      -5.51811790      -0.10486700       0.03484859      -0.25069398      -1.78532696      -0.00379161       0.14871758      -0.00084567      -1.84501529
O        7.92762000       3.96355000      -0.06012680      -2.25756240       0.01445520       0.07922252       0.01445329      -2.25755548      -0.07923540       0.01889411      -0.01890269      -4.38236475
O        7.89555000       9.95531000       2.13626000      -1.78533566      -0.25070450       0.00378738      -0.10487126      -5.51806021      -0.03485504       0.00084253      -0.14873657      -1.84500802
O        9.86804000       7.96170000       2.13626000      -5.51810503      -0.10486403       0.03486013      -0.25069362      -1.78533697      -0.00379131       0.14873675      -0.00084242      -1.84501481
O        7.92762000       7.92964000       4.24390000      -2.25752878       0.01446038       0.07923743       0.01445916      -2.25753403      -0.07924389       0.01890216      -0.01891512      -4.38240767
O        7.89555000       9.95531000       6.44028000      -1.78532457      -0.25070560       0.00378740      -0.10487070      -5.51811075      -0.03485709       0.00084307      -0.14873256      -1.84502792
O        9.86803000       7.96171000       6.44028000      -5.51811647      -0.10487305       0.03485507      -0.25070429      -1.78533149      -0.00378679       0.14873734      -0.00084134      -1.84502709
O        7.92762000       7.92964000       8.54793000      -2.25752854       0.01444578       0.07922291       0.01444656      -2.25753093      -0.07922526       0.01889960      -0.01889359      -4.38245201
O        7.89555000       9.95531000      10.74430000      -1.78533578      -0.25070521       0.00379007      -0.10487289      -5.51807499      -0.03485109       0.00084508      -0.14873044      -1.84501147
O        9.86804000       7.96170000      10.74430000      -5.51812029      -0.10486509       0.03484641      -0.25069323      -1.78533542      -0.00378359       0.14871505      -0.00084260      -1.84501648
O        7.92762000       7.92964000      -0.06012680      -2.25755835       0.01446137       0.07922829       0.01446346      -2.25755548      -0.07922995       0.01889956      -0.01891002      -4.38235760
