135
Lattice="11.898253856589696 0.0 0.0 0.0 11.898253856589696 0.0 0.0 0.0 12.912076929577747" Properties=species:S:1:pos:R:3:MACE_becs:R:9 timestep=81330 time_ps=162.66 lammps_kinetic_energy=0.604433633161768 lammps_total_energy=-1073.54776159696 temperature_K=34.8962841944713 lammps_pressure_bar=-18407.6169339885 lammps_stress_bar="18270.1374393751 -2411.65022988256 -6723.59194529531 -2411.65022988256 18271.0897929121 6723.56401818533 -6723.59194529531 6723.56401818533 -91764.0780342528" MACE_electric_field="0.0 0.0 0.140830462231648" MACE_polarization="0.012492731213569641 -0.012492806650698185 -0.00938001461327076" MACE_polarizability="5.637673854827881 0.13245165348052979 0.05752626433968544 0.1324516087770462 5.637674808502197 -0.05752716213464737 0.05752628669142723 -0.05752715468406677 5.078213691711426" pbc="T T T"
Ba       2.00330000       1.95570000      -0.10655700       2.83867741       0.01127343       0.00376711       0.01127379       2.83869553      -0.00377350       0.00351371      -0.00352509       2.89543438
Ba       2.00330000       1.95570000       4.19747000       2.83868456       0.01127487       0.00378076       0.01127291       2.83870029      -0.00376649       0.00352630      -0.00351451       2.89545631
Ba       2.00330000       1.95570000       8.50150000       2.83871555       0.01127120       0.00378139       0.01127044       2.83872128      -0.00378573       0.00351638      -0.00352954       2.89548850
Ba       2.00331000       5.92178000      -0.10655700       2.83868933       0.01127162       0.00378030       0.01127083       2.83868408      -0.00377595       0.00352451      -0.00352215       2.89543533
Ba       2.00331000       5.92178000       4.19747000       2.83870935       0.01126785       0.00378638       0.01126647       2.83870077      -0.00378900       0.00351868      -0.00352750       2.89546633
Ba       2.00331000       5.92178000       8.50150000       2.83871841       0.01126779       0.00378202       0.01126657       2.83871126      -0.00377817       0.00352294      -0.00351172       2.89549732
Ba       2.00330000       9.88787000      -0.10655700       2.83867836       0.01127178       0.00376525       0.01127135       2.83868194      -0.00376781       0.00351967      -0.00351866       2.89543629
Ba       2.00330000       9.88787000       4.19747000       2.83868790       0.01126899       0.00377866       0.01127094       2.83869553      -0.00378160       0.00352194      -0.00351998       2.89545083
Ba       2.00331000       9.88787000       8.50150000       2.83872128       0.01126988       0.00378477       0.01127031       2.83871245      -0.00377747       0.00351701      -0.00351615       2.89548874
Ba       5.96939000       1.95570000      -0.10655700       2.83867908       0.01127254       0.00377726       0.01127209       2.83870053      -0.00377318       0.00351790      -0.00352261       2.89543629
Ba       5.96939000       1.95570000       4.19747000       2.83869481       0.01127475       0.00379438       0.01127232       2.83870745      -0.00376877       0.00352145      -0.00351735       2.89546204
Ba       5.96939000       1.95570000       8.50150000       2.83871698       0.01126851       0.00377267       0.01126678       2.83872271      -0.00378230       0.00351146      -0.00353053       2.89549422
Ba       5.96939000       5.92178000      -0.10655700       2.83869076       0.01126924       0.00377127       0.01127136       2.83868980      -0.00378230       0.00352003      -0.00352312       2.89544201
Ba       5.96939000       5.92178000       4.19747000       2.83870792       0.01126869       0.00378279       0.01126996       2.83870387      -0.00378753       0.00352223      -0.00352201       2.89546824
Ba       5.96939000       5.92178000       8.50150000       2.83871317       0.01126467       0.00377641       0.01126649       2.83871055      -0.00377649       0.00351990      -0.00351157       2.89550471
Ba       5.96939000       9.88787000      -0.10655700       2.83867931       0.01127284       0.00377578       0.01127001       2.83868933      -0.00376707       0.00352078      -0.00351744       2.89543533
Ba       5.96939000       9.88787000       4.19747000       2.83870411       0.01127561       0.00378176       0.01127083       2.83869648      -0.00378238       0.00351503      -0.00352546       2.89546013
Ba       5.96939000       9.88787000       8.50150000       2.83872223       0.01127045       0.00377773       0.01126724       2.83871675      -0.00377888       0.00351154      -0.00351151       2.89549708
Ba       9.93547000       1.95570000      -0.10655700       2.83868885       0.01127169       0.00377261       0.01127218       2.83869076      -0.00377230       0.00352634      -0.00351904       2.89543390
Ba       9.93547000       1.95570000       4.19747000       2.83869576       0.01127289       0.00376609       0.01127628       2.83869457      -0.00376816       0.00350932      -0.00351626       2.89546132
Ba       9.93547000       1.95570000       8.50150000       2.83872390       0.01127085       0.00378667       0.01127008       2.83872056      -0.00378411       0.00353134      -0.00352451       2.89549065
Ba       9.93547000       5.92178000      -0.10655700       2.83869600       0.01127098       0.00376522       0.01127020       2.83868456      -0.00377536       0.00351792      -0.00351975       2.89543772
Ba       9.93547000       5.92178000       4.19747000       2.83870745       0.01126688       0.00378339       0.01127214       2.83869648      -0.00378815       0.00352892      -0.00352890       2.89546967
Ba       9.93547000       5.92178000       8.50150000       2.83872271       0.01126792       0.00377617       0.01127211       2.83871126      -0.00377638       0.00351949      -0.00351005       2.89549994
Ba       9.93547000       9.88787000      -0.10655700       2.83869267       0.01127307       0.00377623       0.01127436       2.83868170      -0.00376923       0.00352802      -0.00351885       2.89543772
Ba       9.93547000       9.88787000       4.19747000       2.83870029       0.01127042       0.00377628       0.01126992       2.83868337      -0.00378299       0.00352538      -0.00352407       2.89546156
Ba       9.93547000       9.88787000       8.50150000       2.83872509       0.01127152       0.00378734       0.01127068       2.83871317      -0.00377962       0.00352538      -0.00352044       2.89549732
Ti       0.06395980      -0.07104150       2.05592000       6.69724751       0.31587377       0.15752964       0.31587797       6.69724464      -0.15752247       0.18137237      -0.18137683       5.14062929
Ti       0.06395960      -0.07104130       6.35994000       6.69725275       0.31586736       0.15752527       0.31587166       6.69723940      -0.15754363       0.18138149      -0.18136531       5.14061928
Ti       0.06395990      -0.07104170      10.66400000       6.69728279       0.31587967       0.15749097       0.31588113       6.69726849      -0.15750381       0.18133454      -0.18133575       5.14076281
Ti       0.06395990       3.89504000       2.05592000       6.69725704       0.31587881       0.15752527       0.31587797       6.69726562      -0.15752235       0.18137145      -0.18137297       5.14065838
Ti       0.06395970       3.89504000       6.35994000       6.69723225       0.31587166       0.15753669       0.31587330       6.69723701      -0.15753122       0.18137503      -0.18137899       5.14061165
Ti       0.06395990       3.89504000      10.66400000       6.69728088       0.31587780       0.15749593       0.31587720       6.69729710      -0.15748972       0.18135217      -0.18134746       5.14078665
Ti       0.06395990       7.86113000       2.05592000       6.69727135       0.31586331       0.15752001       0.31586045       6.69726276      -0.15750736       0.18136793      -0.18135877       5.14068365
Ti       0.06395970       7.86113000       6.35994000       6.69723225       0.31587744       0.15753669       0.31586844       6.69725132      -0.15755227       0.18138005      -0.18138522       5.14063120
Ti       0.06395990       7.86113000      10.66400000       6.69729900       0.31587008       0.15750971       0.31587386       6.69728804      -0.15750083       0.18134439      -0.18132925       5.14077854
Ti       4.03004000      -0.07104160       2.05592000       6.69727230       0.31586832       0.15751463       0.31585971       6.69726276      -0.15752190       0.18135688      -0.18136622       5.14067554
Ti       4.03004000      -0.07104140       6.35994000       6.69726849       0.31586313       0.15754251       0.31585988       6.69725657      -0.15753004       0.18137652      -0.18137117       5.14065886
Ti       4.03004000      -0.07104150      10.66400000       6.69730186       0.31586966       0.15749255       0.31587172       6.69727898      -0.15750103       0.18133044      -0.18133827       5.14076996
Ti       4.03004000       3.89504000       2.05592000       6.69727898       0.31587371       0.15751420       0.31586829       6.69728327      -0.15753633       0.18135284      -0.18136671       5.14068031
Ti       4.03004000       3.89504000       6.35994000       6.69724989       0.31586573       0.15753210       0.31586272       6.69723892      -0.15754338       0.18136725      -0.18138897       5.14061546
Ti       4.03004000       3.89504000      10.66400000       6.69729996       0.31586742       0.15749446       0.31586981       6.69730902      -0.15750034       0.18133503      -0.18136710       5.14078474
Ti       4.03004000       7.86113000       2.05592000       6.69729424       0.31585467       0.15751024       0.31585321       6.69727373      -0.15751249       0.18136686      -0.18136840       5.14070845
Ti       4.03004000       7.86113000       6.35994000       6.69726276       0.31587541       0.15753371       0.31586140       6.69726753      -0.15753555       0.18137842      -0.18137243       5.14060307
Ti       4.03004000       7.86113000      10.66400000       6.69731855       0.31586418       0.15750134       0.31586856       6.69730186      -0.15749894       0.18132314      -0.18132974       5.14079237
Ti       7.99613000      -0.07104160       2.05592000       6.69728422       0.31585902       0.15752387       0.31587273       6.69725132      -0.15751992       0.18136212      -0.18136942       5.14063549
Ti       7.99613000      -0.07104140       6.35994000       6.69727278       0.31586987       0.15753508       0.31588048       6.69725323      -0.15752912       0.18138638      -0.18136907       5.14060736
Ti       7.99613000      -0.07104170      10.66400000       6.69728565       0.31587532       0.15748766       0.31588125       6.69728041      -0.15750247       0.18134065      -0.18134081       5.14077282
Ti       7.99613000       3.89504000       2.05592000       6.69728231       0.31587088       0.15752161       0.31587368       6.69726944      -0.15752330       0.18136847      -0.18137449       5.14065266
Ti       7.99613000       3.89504000       6.35994000       6.69726562       0.31587666       0.15753111       0.31588626       6.69721937      -0.15752876       0.18137619      -0.18138099       5.14059162
Ti       7.99613000       3.89504000      10.66400000       6.69729805       0.31588119       0.15749405       0.31587219       6.69729805      -0.15750030       0.18134676      -0.18135273       5.14076328
Ti       7.99613000       7.86113000       2.05592000       6.69727135       0.31586328       0.15754178       0.31586596       6.69727230      -0.15752041       0.18137395      -0.18135934       5.14067364
Ti       7.99613000       7.86113000       6.35994000       6.69726467       0.31587350       0.15753295       0.31587744       6.69724369      -0.15754166       0.18138060      -0.18137610       5.14058590
Ti       7.99613000       7.86113000      10.66400000       6.69730043       0.31586665       0.15749966       0.31586644       6.69729280      -0.15749013       0.18135053      -0.18132246       5.14078903
O       -0.03670410       2.02247000       2.15224000      -1.78843570      -0.24206240       0.02158538      -0.10153459      -5.49682283       0.05656417       0.00963971       0.14617380      -1.83821177
O        1.93653000       0.02962230       2.15224000      -5.49683237      -0.10153410      -0.05656209      -0.24206126      -1.78842998      -0.02158326      -0.14617102      -0.00964298      -1.83820772
O       -0.00401542      -0.00306630       4.32444000      -2.25070143       0.01645567      -0.12632573       0.01645214      -2.25069857       0.12632547      -0.04835682       0.04834709      -4.35972881
O       -0.03670550       2.02247000       6.45627000      -1.78842151      -0.24205787       0.02158643      -0.10153513      -5.49679756       0.05656907       0.00964322       0.14618571      -1.83817637
O        1.93653000       0.02962380       6.45627000      -5.49682999      -0.10153198      -0.05657304      -0.24206328      -1.78842044      -0.02158782      -0.14618590      -0.00964438      -1.83817923
O       -0.00401535      -0.00306637       8.62847000      -2.25074935       0.01644608      -0.12631035       0.01644706      -2.25074744       0.12632675      -0.04834749       0.04836014      -4.35967827
O       -0.03670440       2.02247000      10.76030000      -1.78843427      -0.24206492       0.02158558      -0.10153817      -5.49683571       0.05655542       0.00964132       0.14615759      -1.83819342
O        1.93653000       0.02962270      10.76030000      -5.49683332      -0.10153499      -0.05654995      -0.24206589      -1.78843093      -0.02158777      -0.14615177      -0.00964329      -1.83819652
O       -0.00401534      -0.00306643       0.02041430      -2.25069118       0.01644274      -0.12630902       0.01644258      -2.25068998       0.12631729      -0.04834418       0.04835203      -4.35982561
O       -0.03670410       5.98855000       2.15224000      -1.78844285      -0.24205798       0.02158397      -0.10153206      -5.49684000       0.05656323       0.00964235       0.14617631      -1.83821607
O        1.93653000       3.99571000       2.15224000      -5.49683619      -0.10154068      -0.05656286      -0.24206027      -1.78842854      -0.02158925      -0.14617291      -0.00964476      -1.83820963
O       -0.00401539       3.96302000       4.32444000      -2.25071096       0.01645469      -0.12632501       0.01645356      -2.25070143       0.12633987      -0.04835803       0.04836269      -4.35972166
O       -0.03670550       5.98856000       6.45627000      -1.78843808      -0.24207041       0.02158931      -0.10153707      -5.49678898       0.05656996       0.00964332       0.14618866      -1.83819818
O        1.93653000       3.99571000       6.45627000      -5.49681950      -0.10154095      -0.05656759      -0.24206671      -1.78842521      -0.02158826      -0.14618176      -0.00964409      -1.83818960
O       -0.00401535       3.96302000       8.62847000      -2.25075531       0.01646013      -0.12633084       0.01645976      -2.25074577       0.12630452      -0.04836229       0.04835298      -4.35967207
O       -0.03670440       5.98855000      10.76030000      -1.78844571      -0.24205713       0.02158557      -0.10153441      -5.49684811       0.05654885       0.00964149       0.14615276      -1.83821225
O        1.93653000       3.99571000      10.76030000      -5.49683857      -0.10154110      -0.05655104      -0.24206483      -1.78842628      -0.02158634      -0.14615165      -0.00964191      -1.83819842
O       -0.00401528       3.96302000       0.02041430      -2.25069523       0.01645138      -0.12632082       0.01645089      -2.25068426       0.12631188      -0.04835650       0.04834637      -4.35981941
O       -0.03670410       9.95464000       2.15224000      -1.78843367      -0.24206214       0.02158186      -0.10153402      -5.49680901       0.05656179       0.00964167       0.14617169      -1.83821118
O        1.93653000       7.96179000       2.15224000      -5.49683475      -0.10152715      -0.05656279      -0.24205193      -1.78843093      -0.02158384      -0.14616995      -0.00964317      -1.83820534
O       -0.00401542       7.92910000       4.32444000      -2.25070190       0.01646862      -0.12633321       0.01646861      -2.25069737       0.12633425      -0.04836467       0.04836149      -4.35973787
O       -0.03670550       9.95464000       6.45627000      -1.78842664      -0.24206483       0.02158500      -0.10153349      -5.49680710       0.05656803       0.00964485       0.14618021      -1.83818960
O        1.93653000       7.96179000       6.45627000      -5.49682665      -0.10153091      -0.05657020      -0.24206083      -1.78842425      -0.02158643      -0.14618425      -0.00964297      -1.83818436
O       -0.00401532       7.92910000       8.62847000      -2.25074863       0.01644845      -0.12631671       0.01645172      -2.25074387       0.12632565      -0.04835824       0.04835723      -4.35967636
O       -0.03670440       9.95464000      10.76030000      -1.78843045      -0.24205928       0.02158212      -0.10153627      -5.49682093       0.05655305       0.00964040       0.14614360      -1.83819616
O        1.93653000       7.96179000      10.76030000      -5.49684668      -0.10153134      -0.05654798      -0.24206103      -1.78842854      -0.02158679      -0.14615422      -0.00964389      -1.83818889
O       -0.00401530       7.92910000       0.02041430      -2.25068784       0.01645190      -0.12632143       0.01645244      -2.25068426       0.12630710      -0.04835253       0.04834607      -4.35984659
O        3.92938000       2.02247000       2.15224000      -1.78843355      -0.24205494       0.02158352      -0.10153193      -5.49682283       0.05656442       0.00964331       0.14617574      -1.83820915
O        5.90262000       0.02962240       2.15224000      -5.49684000      -0.10153025      -0.05656225      -0.24204925      -1.78844476      -0.02158396      -0.14617728      -0.00964027      -1.83822429
O        3.96207000      -0.00306633       4.32444000      -2.25070620       0.01644584      -0.12633021       0.01644500      -2.25070095       0.12632860      -0.04835224       0.04835611      -4.35974073
O        3.92938000       2.02247000       6.45627000      -1.78842306      -0.24205501       0.02158424      -0.10153249      -5.49680710       0.05657034       0.00964515       0.14618213      -1.83818018
O        5.90262000       0.02962380       6.45627000      -5.49682236      -0.10153140      -0.05656888      -0.24204990      -1.78843737      -0.02158586      -0.14617740      -0.00964276      -1.83819747
O        3.96207000      -0.00306638       8.62847000      -2.25074935       0.01645061      -0.12631300       0.01645218      -2.25074625       0.12632015      -0.04834989       0.04835965      -4.35968256
O        3.92938000       2.02247000      10.76030000      -1.78843260      -0.24206007       0.02158731      -0.10153543      -5.49684525       0.05655412       0.00964301       0.14615776      -1.83819485
O        5.90262000       0.02962270      10.76030000      -5.49685478      -0.10153516      -0.05654719      -0.24205850      -1.78844786      -0.02158614      -0.14614539      -0.00964203      -1.83821714
O        3.96207000      -0.00306639       0.02041440      -2.25069070       0.01644959      -0.12630861       0.01645109      -2.25068831       0.12631337      -0.04835548       0.04835473      -4.35983372
O        3.92938000       5.98855000       2.15224000      -1.78844595      -0.24205045       0.02158681      -0.10152873      -5.49683952       0.05656226       0.00964429       0.14617875      -1.83822012
O        5.90262000       3.99571000       2.15224000      -5.49683094      -0.10153525      -0.05656501      -0.24205446      -1.78843999      -0.02158823      -0.14617403      -0.00964640      -1.83822250
O        3.96207000       3.96302000       4.32444000      -2.25070667       0.01645342      -0.12632404       0.01645422      -2.25069904       0.12634067      -0.04834863       0.04836158      -4.35972691
O        3.92938000       5.98856000       6.45627000      -1.78844130      -0.24207217       0.02158734      -0.10153580      -5.49679565       0.05656911       0.00964458       0.14619218      -1.83820200
O        5.90262000       3.99571000       6.45627000      -5.49680424      -0.10153548      -0.05656756      -0.24205986      -1.78844070      -0.02158588      -0.14617957      -0.00964359      -1.83820188
O        3.96207000       3.96302000       8.62847000      -2.25074983       0.01647029      -0.12631527       0.01646844      -2.25074458       0.12631364      -0.04835377       0.04836527      -4.35967731
O        3.92938000       5.98855000      10.76030000      -1.78844643      -0.24205503       0.02158428      -0.10153224      -5.49684906       0.05654941       0.00964374       0.14614949      -1.83821225
O        5.90262000       3.99571000      10.76030000      -5.49684811      -0.10153651      -0.05654761      -0.24206004      -1.78844321      -0.02158641      -0.14614260      -0.00963992      -1.83821428
O        3.96207000       3.96302000       0.02041430      -2.25069165       0.01645371      -0.12630609       0.01645295      -2.25068712       0.12632820      -0.04834529       0.04835436      -4.35983133
O        3.92938000       9.95464000       2.15224000      -1.78843403      -0.24205729       0.02158710      -0.10153023      -5.49682713       0.05656163       0.00964177       0.14616790      -1.83820701
O        5.90262000       7.96179000       2.15224000      -5.49685669      -0.10152903      -0.05656061      -0.24205127      -1.78844380      -0.02158340      -0.14617620      -0.00964201      -1.83821809
O        3.96207000       7.92910000       4.32444000      -2.25070190       0.01644963      -0.12633340       0.01645295      -2.25069952       0.12632889      -0.04835682       0.04835743      -4.35975742
O        3.92938000       9.95464000       6.45627000      -1.78843391      -0.24205948       0.02158930      -0.10152926      -5.49681568       0.05656817       0.00964556       0.14618735      -1.83819079
O        5.90262000       7.96179000       6.45627000      -5.49682140      -0.10153129      -0.05656780      -0.24205434      -1.78843379      -0.02158701      -0.14618134      -0.00964343      -1.83820271
O        3.96207000       7.92910000       8.62847000      -2.25074673       0.01645645      -0.12632068       0.01645589      -2.25074697       0.12631816      -0.04835536       0.04834722      -4.35968590
O        3.92938000       9.95464000      10.76030000      -1.78843260      -0.24205825       0.02158311      -0.10153305      -5.49683666       0.05655157       0.00964147       0.14615069      -1.83819675
O        5.90262000       7.96179000      10.76030000      -5.49687290      -0.10153277      -0.05654661      -0.24205671      -1.78844714      -0.02158277      -0.14614795      -0.00964353      -1.83820963
O        3.96207000       7.92910000       0.02041430      -2.25068665       0.01644588      -0.12631513       0.01644818      -2.25068951       0.12630448      -0.04835869       0.04834653      -4.35984898
O        7.89547000       2.02247000       2.15224000      -1.78842962      -0.24205147       0.02158402      -0.10153180      -5.49681807       0.05656275       0.00964354       0.14617601      -1.83820963
O        9.86870000       0.02962240       2.15224000      -5.49682188      -0.10153644      -0.05656441      -0.24206364      -1.78843594      -0.02158837      -0.14617366      -0.00964067      -1.83820868
O        7.92815000      -0.00306630       4.32444000      -2.25070906       0.01644077      -0.12632790       0.01644002      -2.25071383       0.12633061      -0.04835347       0.04836126      -4.35972404
O        7.89546000       2.02247000       6.45627000      -1.78842044      -0.24205458       0.02158510      -0.10153861      -5.49680090       0.05657075       0.00964441       0.14618161      -1.83818614
O        9.86870000       0.02962380       6.45627000      -5.49680710      -0.10153628      -0.05657040      -0.24206261      -1.78842294      -0.02158621      -0.14618255      -0.00964444      -1.83818352
O        7.92815000      -0.00306634       8.62847000      -2.25074458       0.01645333      -0.12631005       0.01645146      -2.25075126       0.12631926      -0.04836192       0.04835727      -4.35967398
O        7.89546000       2.02247000      10.76030000      -1.78842640      -0.24206981       0.02158681      -0.10153948      -5.49683809       0.05655285       0.00964136       0.14615862      -1.83819759
O        9.86870000       0.02962270      10.76030000      -5.49682522      -0.10153782      -0.05655384      -0.24206699      -1.78843284      -0.02158507      -0.14615916      -0.00964203      -1.83819890
O        7.92815000      -0.00306638       0.02041430      -2.25068784       0.01645689      -0.12631255       0.01645424      -2.25069046       0.12631865      -0.04835223       0.04835709      -4.35982227
O        7.89547000       5.98855000       2.15224000      -1.78843987      -0.24205546       0.02158800      -0.10153005      -5.49684095       0.05656127       0.00964340       0.14617875      -1.83821702
O        9.86870000       3.99571000       2.15224000      -5.49682093      -0.10153910      -0.05656531      -0.24206790      -1.78843403      -0.02158906      -0.14617468      -0.00964577      -1.83821082
O        7.92815000       3.96302000       4.32444000      -2.25070357       0.01645205      -0.12632853       0.01644966      -2.25070643       0.12633950      -0.04835851       0.04836150      -4.35971975
O        7.89546000       5.98856000       6.45627000      -1.78843284      -0.24206887       0.02158481      -0.10154136      -5.49679089       0.05656967       0.00964295       0.14618340      -1.83819747
O        9.86870000       3.99571000       6.45627000      -5.49678898      -0.10153732      -0.05656976      -0.24206981      -1.78843033      -0.02158672      -0.14618146      -0.00964380      -1.83819222
O        7.92815000       3.96302000       8.62847000      -2.25074506       0.01646123      -0.12631953       0.01646124      -2.25075126       0.12630686      -0.04836588       0.04835805      -4.35966539
O        7.89546000       5.98855000      10.76030000      -1.78844047      -0.24206316       0.02158378      -0.10153607      -5.49684620       0.05654669       0.00963963       0.14614552      -1.83821023
O        9.86870000       3.99571000      10.76030000      -5.49682140      -0.10153855      -0.05655031      -0.24206397      -1.78842759      -0.02158654      -0.14615646      -0.00964161      -1.83819544
O        7.92815000       3.96302000       0.02041430      -2.25068808       0.01645206      -0.12631056       0.01645209      -2.25068808       0.12632844      -0.04834604       0.04835896      -4.35982227
O        7.89547000       9.95464000       2.15224000      -1.78842688      -0.24204582       0.02158733      -0.10153015      -5.49680996       0.05656076       0.00964300       0.14616546      -1.83821023
O        9.86870000       7.96179000       2.15224000      -5.49682331      -0.10153258      -0.05656399      -0.24205850      -1.78843665      -0.02158745      -0.14617427      -0.00964424      -1.83820903
O        7.92815000       7.92910000       4.32444000      -2.25070286       0.01645175      -0.12633809       0.01645256      -2.25070834       0.12632276      -0.04836200       0.04834732      -4.35973740
O        7.89546000       9.95464000       6.45627000      -1.78842545      -0.24206290       0.02158659      -0.10153839      -5.49680901       0.05656791       0.00964364       0.14618495      -1.83819103
O        9.86870000       7.96179000       6.45627000      -5.49679518      -0.10153583      -0.05656911      -0.24206641      -1.78842556      -0.02158299      -0.14617971      -0.00964330      -1.83819532
O        7.92815000       7.92910000       8.62847000      -2.25074005       0.01646140      -0.12631708       0.01645889      -2.25074720       0.12631577      -0.04836468       0.04834931      -4.35967636
O        7.89546000       9.95464000      10.76030000      -1.78842473      -0.24206120       0.02158315      -0.10153788      -5.49681664       0.05655124       0.00963995       0.14614822      -1.83819866
O        9.86870000       7.96179000      10.76030000      -5.49683571      -0.10153475      -0.05655314      -0.24205768      -1.78843188      -0.02158583      -0.14615363      -0.00964535      -1.83819318
O        7.92815000       7.92910000       0.02041440      -2.25068426       0.01645753      -0.12632269       0.01645404      -2.25069118       0.12630902      -0.04835670       0.04834607      -4.35984230
