135
Lattice="11.898253856589696 0.0 0.0 0.0 11.898253856589696 0.0 0.0 0.0 12.912076929577747" Properties=species:S:1:pos:R:3:MACE_becs:R:9 timestep=81355 time_ps=162.71 lammps_kinetic_energy=0.247311035411912 lammps_total_energy=-1081.41049132286 temperature_K=14.2782196467437 lammps_pressure_bar=3529.40563807653 lammps_stress_bar="20117.3975471403 -972.531824944624 -7869.45602457944 -972.531824944624 20117.2051556893 7869.45469066105 -7869.45602457944 7869.45469066105 -29646.3857886" MACE_electric_field="0.0 0.0 0.141356848959583" MACE_polarization="0.00988643616437912 -0.009886273182928562 -0.025842448696494102" MACE_polarizability="5.141046524047852 0.08383024483919144 0.14622768759727478 0.08383021503686905 5.141046524047852 -0.1462242752313614 0.14622774720191956 -0.1462242752313614 4.5507283210754395" pbc="T T T"
Ba       2.00295000       1.95605000      -0.13437800       2.79361558       0.00882030       0.01260673       0.00881957       2.79361343      -0.01260849      -0.00225929       0.00224743       3.07138014
Ba       2.00295000       1.95605000       4.16965000       2.79363632       0.00881803       0.01259262       0.00881885       2.79362631      -0.01261342      -0.00226676       0.00224609       3.07142758
Ba       2.00295000       1.95605000       8.47368000       2.79365444       0.00881938       0.01261484       0.00881863       2.79364204      -0.01259313      -0.00225035       0.00225919       3.07142496
Ba       2.00295000       5.92214000      -0.13437800       2.79361105       0.00882125       0.01260870       0.00881840       2.79360914      -0.01259167      -0.00225564       0.00225567       3.07136440
Ba       2.00295000       5.92214000       4.16965000       2.79362917       0.00882409       0.01259062       0.00881949       2.79361749      -0.01259775      -0.00226934       0.00224944       3.07142401
Ba       2.00295000       5.92214000       8.47368000       2.79364610       0.00882159       0.01261831       0.00881882       2.79363418      -0.01260716      -0.00225089       0.00224391       3.07141304
Ba       2.00295000       9.88822000      -0.13437800       2.79360294       0.00881666       0.01261014       0.00882057       2.79361439      -0.01261879      -0.00226037       0.00225274       3.07137156
Ba       2.00295000       9.88822000       4.16965000       2.79361725       0.00881591       0.01259575       0.00881794       2.79362822      -0.01260063      -0.00226164       0.00226519       3.07142162
Ba       2.00295000       9.88822000       8.47368000       2.79364252       0.00881642       0.01261497       0.00882034       2.79363942      -0.01260510      -0.00225648       0.00225810       3.07142305
Ba       5.96903000       1.95605000      -0.13437800       2.79362369       0.00882183       0.01259833       0.00882047       2.79361653      -0.01260264      -0.00225593       0.00224788       3.07137299
Ba       5.96903000       1.95605000       4.16965000       2.79363871       0.00882321       0.01259708       0.00882801       2.79363775      -0.01261275      -0.00225191       0.00225138       3.07143545
Ba       5.96903000       1.95605000       8.47368000       2.79366636       0.00882204       0.01261279       0.00882385       2.79365039      -0.01259664      -0.00224113       0.00225746       3.07142138
Ba       5.96903000       5.92214000      -0.13437800       2.79361701       0.00882150       0.01259796       0.00881906       2.79361248      -0.01258532      -0.00225563       0.00225607       3.07136393
Ba       5.96903000       5.92214000       4.16965000       2.79363251       0.00882398       0.01259711       0.00882157       2.79363203      -0.01259295      -0.00224790       0.00224922       3.07142782
Ba       5.96903000       5.92214000       8.47368000       2.79365611       0.00882261       0.01261363       0.00882063       2.79364467      -0.01261207      -0.00223941       0.00224079       3.07141256
Ba       5.96903000       9.88822000      -0.13437800       2.79360986       0.00881618       0.01259428       0.00882224       2.79361868      -0.01262010      -0.00225838       0.00225483       3.07137203
Ba       5.96903000       9.88822000       4.16965000       2.79362178       0.00881765       0.01259723       0.00882324       2.79364347      -0.01259708      -0.00224458       0.00226703       3.07143354
Ba       5.96903000       9.88822000       8.47368000       2.79365611       0.00882031       0.01260683       0.00882339       2.79364872      -0.01260984      -0.00224224       0.00225785       3.07142115
Ba       9.93512000       1.95605000      -0.13437800       2.79361486       0.00882197       0.01260478       0.00882074       2.79360962      -0.01260755      -0.00224378       0.00224651       3.07137918
Ba       9.93512000       1.95605000       4.16965000       2.79364038       0.00882284       0.01261647       0.00882098       2.79363203      -0.01261177      -0.00224548       0.00224816       3.07143140
Ba       9.93512000       1.95605000       8.47368000       2.79365563       0.00881942       0.01258985       0.00881815       2.79364276      -0.01259730      -0.00226139       0.00225628       3.07142401
Ba       9.93512000       5.92214000      -0.13437800       2.79360962       0.00882186       0.01260588       0.00882228       2.79360962      -0.01258866      -0.00224659       0.00225963       3.07135630
Ba       9.93512000       5.92214000       4.16965000       2.79363394       0.00882538       0.01261512       0.00881974       2.79362535      -0.01259602      -0.00224471       0.00224860       3.07141876
Ba       9.93512000       5.92214000       8.47368000       2.79364872       0.00882200       0.01259143       0.00882120       2.79363823      -0.01260973      -0.00225830       0.00224104       3.07140541
Ba       9.93512000       9.88822000      -0.13437800       2.79360294       0.00881893       0.01260490       0.00882513       2.79361439      -0.01261858      -0.00224738       0.00225318       3.07136726
Ba       9.93512000       9.88822000       4.16965000       2.79362154       0.00881984       0.01261603       0.00882348       2.79364014      -0.01259948      -0.00224789       0.00226683       3.07141876
Ba       9.93512000       9.88822000       8.47368000       2.79364872       0.00881757       0.01258810       0.00881952       2.79364634      -0.01260851      -0.00225753       0.00225613       3.07141542
Ti       0.05345680      -0.06053860       1.93462000       6.26073122       0.17472446       0.35756981       0.17472106       6.26071501      -0.35756779       0.44842511      -0.44843251       3.71352363
Ti       0.05345650      -0.06053820       6.23865000       6.26073456       0.17472222       0.35756576       0.17472276       6.26073837      -0.35755754       0.44842687      -0.44841987       3.71346521
Ti       0.05345660      -0.06053840      10.54270000       6.26078796       0.17472374       0.35754326       0.17472659       6.26082182      -0.35755718       0.44840688      -0.44842771       3.71370840
Ti       0.05345690       3.90555000       1.93462000       6.26071262       0.17471620       0.35757238       0.17471337       6.26072884      -0.35756201       0.44842908      -0.44842374       3.71352863
Ti       0.05345650       3.90555000       6.23865000       6.26072788       0.17472468       0.35757589       0.17472225       6.26074934      -0.35754859       0.44844306      -0.44841790       3.71347070
Ti       0.05345660       3.90555000      10.54270000       6.26078892       0.17471957       0.35754460       0.17471945       6.26079845      -0.35754097       0.44841295      -0.44840682       3.71372986
Ti       0.05345700       7.87163000       1.93462000       6.26071358       0.17472479       0.35758400       0.17472923       6.26069164      -0.35756010       0.44842881      -0.44845396       3.71353531
Ti       0.05345650       7.87163000       6.23865000       6.26073360       0.17472753       0.35757911       0.17473339       6.26073599      -0.35756290       0.44845274      -0.44842392       3.71347857
Ti       0.05345670       7.87163000      10.54270000       6.26079941       0.17473358       0.35755038       0.17472954       6.26080847      -0.35753742       0.44842196      -0.44842809       3.71373749
Ti       4.01954000      -0.06053860       1.93462000       6.26072311       0.17471670       0.35755423       0.17471182       6.26072407      -0.35756004       0.44841754      -0.44842076       3.71350288
Ti       4.01954000      -0.06053820       6.23865000       6.26073027       0.17471954       0.35754678       0.17471409       6.26073551      -0.35755658       0.44844401      -0.44842368       3.71350956
Ti       4.01954000      -0.06053840      10.54270000       6.26081848       0.17472699       0.35751823       0.17472067       6.26083183      -0.35755712       0.44840568      -0.44842339       3.71368718
Ti       4.01954000       3.90555000       1.93462000       6.26074409       0.17471221       0.35756260       0.17470936       6.26073551      -0.35755581       0.44843075      -0.44840923       3.71349931
Ti       4.01954000       3.90555000       6.23865000       6.26073074       0.17472860       0.35754210       0.17471842       6.26076365      -0.35755056       0.44845045      -0.44842172       3.71349001
Ti       4.01954000       3.90555000      10.54270000       6.26083708       0.17472965       0.35752970       0.17472157       6.26081419      -0.35753566       0.44840389      -0.44840795       3.71369934
Ti       4.01954000       7.87163000       1.93462000       6.26072884       0.17471908       0.35756412       0.17472994       6.26069069      -0.35755485       0.44842690      -0.44844711       3.71351624
Ti       4.01954000       7.87163000       6.23865000       6.26073503       0.17472939       0.35755718       0.17472994       6.26075220      -0.35754448       0.44844496      -0.44841754       3.71350908
Ti       4.01954000       7.87163000      10.54270000       6.26082039       0.17472339       0.35752320       0.17472270       6.26082325      -0.35753095       0.44840381      -0.44840688       3.71371841
Ti       7.98563000      -0.06053860       1.93462000       6.26071358       0.17471877       0.35756981       0.17471507       6.26071692      -0.35755485       0.44844729      -0.44840777       3.71349788
Ti       7.98563000      -0.06053820       6.23865000       6.26070976       0.17473131       0.35758561       0.17473201       6.26073074      -0.35755074       0.44844353      -0.44842452       3.71348333
Ti       7.98563000      -0.06053830      10.54270000       6.26077938       0.17474094       0.35757124       0.17474824       6.26081753      -0.35755521       0.44843128      -0.44841838       3.71365809
Ti       7.98563000       3.90555000       1.93462000       6.26070833       0.17472756       0.35757488       0.17471755       6.26072979      -0.35757306       0.44845492      -0.44840682       3.71351027
Ti       7.98563000       3.90555000       6.23865000       6.26074219       0.17471255       0.35757899       0.17471410       6.26076126      -0.35753825       0.44842935      -0.44841135       3.71347761
Ti       7.98563000       3.90555000      10.54270000       6.26078176       0.17472959       0.35756651       0.17472255       6.26079464      -0.35754013       0.44843680      -0.44840139       3.71366096
Ti       7.98563000       7.87163000       1.93462000       6.26069450       0.17471305       0.35757825       0.17471629       6.26068306      -0.35755694       0.44845995      -0.44844750       3.71351957
Ti       7.98563000       7.87163000       6.23865000       6.26072693       0.17472535       0.35757482       0.17471907       6.26074505      -0.35754400       0.44844747      -0.44842994       3.71347904
Ti       7.98563000       7.87163000      10.54270000       6.26078415       0.17473072       0.35757357       0.17473385       6.26080608      -0.35753024       0.44843489      -0.44841462       3.71370769
O       -0.03451060       2.01426000       2.17836000      -1.83496332      -0.14224614       0.04002628      -0.06232084      -5.20173454       0.14206232       0.01770611       0.35977820      -1.79959083
O        1.94475000       0.02742880       2.17836000      -5.20173931      -0.06231761      -0.14205399      -0.14224471      -1.83494592      -0.04003077      -0.35976082      -0.01771062      -1.79958296
O       -0.00162718      -0.00545455       4.42465000      -2.01768780       0.02102792      -0.26814175       0.02102590      -2.01768374       0.26812840      -0.10410520       0.10411228      -3.18580389
O       -0.03451200       2.01426000       6.48238000      -1.83495474      -0.14225200       0.04002659      -0.06232630      -5.20174694       0.14206138       0.01770849       0.35976771      -1.79957962
O        1.94474000       0.02743020       6.48238000      -5.20172787      -0.06232335      -0.14206207      -0.14225094      -1.83494186      -0.04002941      -0.35977131      -0.01770875      -1.79956603
O       -0.00162708      -0.00545467       8.72868000      -2.01771212       0.02102113      -0.26813948       0.02102014      -2.01770329       0.26813179      -0.10411328       0.10411325      -3.18573594
O       -0.03451080       2.01426000      10.78640000      -1.83495021      -0.14225367       0.04002810      -0.06232530      -5.20178986       0.14204684       0.01770591       0.35975879      -1.79956138
O        1.94475000       0.02742910      10.78640000      -5.20180702      -0.06231069      -0.14202893      -0.14224471      -1.83493948      -0.04002671      -0.35975477      -0.01770378      -1.79955745
O       -0.00162695      -0.00545476       0.12062500      -2.01766229       0.02102690      -0.26813757       0.02102584      -2.01765680       0.26813164      -0.10411211       0.10410988      -3.18595219
O       -0.03451060       5.98034000       2.17836000      -1.83494496      -0.14224868       0.04002727      -0.06232065      -5.20173073       0.14206097       0.01771039       0.35978013      -1.79958034
O        1.94475000       3.99351000       2.17836000      -5.20175076      -0.06231246      -0.14205149      -0.14223708      -1.83495343      -0.04002199      -0.35976282      -0.01770292      -1.79958344
O       -0.00162717       3.96063000       4.42465000      -2.01768017       0.02102637      -0.26814574       0.02102655      -2.01767778       0.26813763      -0.10411279       0.10410726      -3.18580294
O       -0.03451190       5.98034000       6.48238000      -1.83494115      -0.14225034       0.04002403      -0.06231554      -5.20174789       0.14205150       0.01770263       0.35976145      -1.79956079
O        1.94474000       3.99351000       6.48238000      -5.20172310      -0.06232302      -0.14206383      -0.14224580      -1.83494282      -0.04002678      -0.35977587      -0.01770909      -1.79956222
O       -0.00162708       3.96063000       8.72868000      -2.01772141       0.02102917      -0.26813745       0.02103007      -2.01771426       0.26812920      -0.10411289       0.10411484      -3.18574691
O       -0.03451080       5.98034000      10.78640000      -1.83493423      -0.14224860       0.04002432      -0.06231911      -5.20181131       0.14204052       0.01770258       0.35975701      -1.79955280
O        1.94475000       3.99351000      10.78640000      -5.20180798      -0.06231469      -0.14203797      -0.14224334      -1.83494902      -0.04002710      -0.35975504      -0.01769892      -1.79956460
O       -0.00162693       3.96063000       0.12062500      -2.01766062       0.02102263      -0.26813418       0.02102297      -2.01765752       0.26813143      -0.10411573       0.10410445      -3.18595123
O       -0.03451060       9.94643000       2.17836000      -1.83495450      -0.14224747       0.04002997      -0.06231918      -5.20172215       0.14206105       0.01770602       0.35977176      -1.79958427
O        1.94475000       7.95960000       2.17836000      -5.20174694      -0.06231488      -0.14205214      -0.14224593      -1.83495283      -0.04002943      -0.35976592      -0.01770114      -1.79958773
O       -0.00162714       7.92671000       4.42465000      -2.01767635       0.02102420      -0.26814801       0.02102635      -2.01767921       0.26812828      -0.10411470       0.10411209      -3.18580246
O       -0.03451190       9.94643000       6.48238000      -1.83494449      -0.14225091       0.04003294      -0.06232451      -5.20173836       0.14205949       0.01771368       0.35976645      -1.79956925
O        1.94474000       7.95960000       6.48238000      -5.20172596      -0.06232485      -0.14206076      -0.14225857      -1.83494818      -0.04003688      -0.35978031      -0.01771075      -1.79956365
O       -0.00162702       7.92671000       8.72868000      -2.01771641       0.02103169      -0.26813835       0.02103065      -2.01771283       0.26814589      -0.10411821       0.10411348      -3.18573570
O       -0.03451090       9.94643000      10.78640000      -1.83494043      -0.14225386       0.04003116      -0.06232695      -5.20177269       0.14205265       0.01771167       0.35976213      -1.79955506
O        1.94475000       7.95960000      10.78640000      -5.20180035      -0.06232173      -0.14203781      -0.14225408      -1.83494818      -0.04003338      -0.35975981      -0.01770118      -1.79956079
O       -0.00162693       7.92671000       0.12062500      -2.01766467       0.02102735      -0.26813251       0.02102405      -2.01765966       0.26812565      -0.10410926       0.10410626      -3.18595695
O        3.93157000       2.01426000       2.17836000      -1.83496165      -0.14224292       0.04003577      -0.06231631      -5.20172787       0.14205517       0.01770847       0.35977131      -1.79959559
O        5.91083000       0.02742880       2.17836000      -5.20171738      -0.06232033      -0.14205806      -0.14224283      -1.83495343      -0.04003019      -0.35977456      -0.01770674      -1.79958963
O        3.96446000      -0.00545454       4.42465000      -2.01767874       0.02103040      -0.26813161       0.02102875      -2.01767874       0.26814318      -0.10411161       0.10412069      -3.18577719
O        3.93157000       2.01426000       6.48238000      -1.83495331      -0.14225298       0.04003181      -0.06232718      -5.20175171       0.14206164       0.01770466       0.35976368      -1.79957426
O        5.91083000       0.02743020       6.48238000      -5.20173836      -0.06232625      -0.14206769      -0.14224803      -1.83495045      -0.04002675      -0.35978192      -0.01770367      -1.79957199
O        3.96446000      -0.00545467       8.72868000      -2.01771426       0.02102957      -0.26812565       0.02102937      -2.01771545       0.26813680      -0.10410784       0.10411346      -3.18575191
O        3.93157000       2.01426000      10.78640000      -1.83494973      -0.14225304       0.04003727      -0.06232681      -5.20178890       0.14204949       0.01771394       0.35975999      -1.79957294
O        5.91083000       0.02742910      10.78640000      -5.20177937      -0.06232832      -0.14205095      -0.14225194      -1.83494759      -0.04002974      -0.35976693      -0.01770589      -1.79957163
O        3.96446000      -0.00545477       0.12062500      -2.01766181       0.02102560      -0.26813093       0.02102830      -2.01766896       0.26813880      -0.10410742       0.10411285      -3.18594408
O        3.93157000       5.98034000       2.17836000      -1.83494902      -0.14223921       0.04003383      -0.06231782      -5.20171452       0.14205512       0.01770694       0.35977203      -1.79958797
O        5.91083000       3.99351000       2.17836000      -5.20171452      -0.06232406      -0.14206848      -0.14223897      -1.83495569      -0.04003421      -0.35978067      -0.01771557      -1.79959476
O        3.96446000       3.96063000       4.42465000      -2.01767182       0.02101616      -0.26812729       0.02101653      -2.01767254       0.26813036      -0.10410617       0.10410762      -3.18578386
O        3.93157000       5.98034000       6.48238000      -1.83494186      -0.14225452       0.04003537      -0.06232331      -5.20175171       0.14205515       0.01770601       0.35976931      -1.79956055
O        5.91083000       3.99351000       6.48238000      -5.20173359      -0.06232265      -0.14206327      -0.14224170      -1.83494902      -0.04002482      -0.35977733      -0.01770760      -1.79956841
O        3.96446000       3.96063000       8.72868000      -2.01771498       0.02102561      -0.26812181       0.02102714      -2.01771712       0.26812115      -0.10410938       0.10411274      -3.18575358
O        3.93157000       5.98034000      10.78640000      -1.83493757      -0.14225000       0.04003336      -0.06232262      -5.20180511       0.14204396       0.01770373       0.35975760      -1.79956365
O        5.91083000       3.99351000      10.78640000      -5.20177031      -0.06232296      -0.14205100      -0.14224949      -1.83495748      -0.04003934      -0.35977066      -0.01771630      -1.79957712
O        3.96446000       3.96063000       0.12062500      -2.01765847       0.02102163      -0.26812989       0.02102465      -2.01766157       0.26812458      -0.10410523       0.10410854      -3.18593740
O        3.93157000       9.94643000       2.17836000      -1.83495116      -0.14224632       0.04002369      -0.06232379      -5.20172167       0.14206123       0.01769627       0.35976505      -1.79958677
O        5.91083000       7.95960000       2.17836000      -5.20171404      -0.06232002      -0.14206451      -0.14224678      -1.83496261      -0.04003067      -0.35977623      -0.01770842      -1.79959905
O        3.96446000       7.92671000       4.42465000      -2.01767921       0.02103458      -0.26814413       0.02103336      -2.01768303       0.26812747      -0.10411272       0.10411104      -3.18578148
O        3.93157000       9.94643000       6.48238000      -1.83494639      -0.14224845       0.04003530      -0.06231986      -5.20173740       0.14205313       0.01770606       0.35976815      -1.79956937
O        5.91083000       7.95960000       6.48238000      -5.20172215      -0.06232451      -0.14206067      -0.14224860      -1.83495617      -0.04003977      -0.35977942      -0.01771591      -1.79956746
O        3.96446000       7.92671000       8.72868000      -2.01771379       0.02102544      -0.26812643       0.02102321      -2.01772070       0.26812768      -0.10410972       0.10410529      -3.18575239
O        3.93157000       9.94643000      10.78640000      -1.83493853      -0.14225590       0.04003884      -0.06232969      -5.20176888       0.14205711       0.01771218       0.35976195      -1.79956496
O        5.91083000       7.95960000      10.78640000      -5.20177269      -0.06231990      -0.14204340      -0.14224954      -1.83495331      -0.04002450      -0.35976660      -0.01770100      -1.79957211
O        3.96446000       7.92671000       0.12062500      -2.01765680       0.02102836      -0.26813528       0.02102501      -2.01766181       0.26812518      -0.10410342       0.10410985      -3.18594337
O        7.89766000       2.01426000       2.17836000      -1.83496296      -0.14225307       0.04003218      -0.06232406      -5.20172882       0.14206618       0.01770829       0.35977972      -1.79959512
O        9.87691000       0.02742880       2.17836000      -5.20171785      -0.06231904      -0.14206651      -0.14224483      -1.83493757      -0.04003181      -0.35978159      -0.01771149      -1.79957557
O        7.93054000      -0.00545452       4.42465000      -2.01767993       0.02101881      -0.26814675       0.02101949      -2.01767778       0.26812521      -0.10412240       0.10411333      -3.18578029
O        7.89766000       2.01426000       6.48238000      -1.83495378      -0.14224224       0.04002275      -0.06232088      -5.20175028       0.14205310       0.01769842       0.35976014      -1.79957080
O        9.87691000       0.02743020       6.48238000      -5.20172453      -0.06232313      -0.14206712      -0.14224675      -1.83494473      -0.04003061      -0.35977912      -0.01771075      -1.79956245
O        7.93054000      -0.00545463       8.72868000      -2.01771784       0.02102884      -0.26815075       0.02102829      -2.01771855       0.26813376      -0.10412192       0.10411434      -3.18573761
O        7.89766000       2.01426000      10.78640000      -1.83495367      -0.14225282       0.04002547      -0.06231902      -5.20179081       0.14203611       0.01769992       0.35975134      -1.79956985
O        9.87691000       0.02742920      10.78640000      -5.20178080      -0.06232268      -0.14205091      -0.14225250      -1.83493447      -0.04003176      -0.35976771      -0.01770832      -1.79955471
O        7.93054000      -0.00545476       0.12062500      -2.01767135       0.02103166      -0.26815027       0.02102971      -2.01766968       0.26813081      -0.10411633       0.10410827      -3.18594265
O        7.89766000       5.98034000       2.17836000      -1.83494723      -0.14224385       0.04002590      -0.06231450      -5.20172882       0.14205371       0.01770238       0.35977605      -1.79958081
O        9.87691000       3.99351000       2.17836000      -5.20171070      -0.06232516      -0.14207643      -0.14224547      -1.83494568      -0.04003584      -0.35978895      -0.01771762      -1.79958081
O        7.93054000       3.96063000       4.42465000      -2.01767588       0.02102050      -0.26814291       0.02102027      -2.01767468       0.26813248      -0.10412167       0.10410428      -3.18578815
O        7.89766000       5.98034000       6.48238000      -1.83494163      -0.14224678       0.04002944      -0.06232233      -5.20174217       0.14205584       0.01770618       0.35976633      -1.79955912
O        9.87691000       3.99351000       6.48238000      -5.20173740      -0.06232489      -0.14206858      -0.14224097      -1.83494234      -0.04002548      -0.35977697      -0.01770658      -1.79956102
O        7.93054000       3.96063000       8.72868000      -2.01772642       0.02102914      -0.26814651       0.02103107      -2.01772738       0.26812536      -0.10412101       0.10411195      -3.18574858
O        7.89766000       5.98034000      10.78640000      -1.83494163      -0.14224651       0.04003464      -0.06232166      -5.20179844       0.14204344       0.01771030       0.35975587      -1.79956317
O        9.87691000       3.99351000      10.78640000      -5.20178032      -0.06232505      -0.14205277      -0.14224917      -1.83494425      -0.04003192      -0.35976443      -0.01770512      -1.79956079
O        7.93054000       3.96063000       0.12062500      -2.01766968       0.02102875      -0.26814377       0.02103220      -2.01767087       0.26813868      -0.10411911       0.10410676      -3.18593788
O        7.89766000       9.94643000       2.17836000      -1.83495378      -0.14225174       0.04003996      -0.06232719      -5.20171070       0.14206749       0.01771559       0.35976604      -1.79958832
O        9.87691000       7.95960000       2.17836000      -5.20171642      -0.06232129      -0.14206797      -0.14225081      -1.83494961      -0.04003065      -0.35978872      -0.01770426      -1.79958153
O        7.93054000       7.92671000       4.42465000      -2.01767921       0.02102676      -0.26814961       0.02102841      -2.01768255       0.26812929      -0.10412340       0.10410474      -3.18579102
O        7.89766000       9.94643000       6.48238000      -1.83494651      -0.14225210       0.04003403      -0.06232274      -5.20172977       0.14205849       0.01771078       0.35976630      -1.79956722
O        9.87691000       7.95960000       6.48238000      -5.20171928      -0.06232355      -0.14206076      -0.14225359      -1.83494771      -0.04003900      -0.35978022      -0.01771451      -1.79955888
O        7.93054000       7.92671000       8.72868000      -2.01772285       0.02102990      -0.26815078       0.02102789      -2.01772475       0.26812866      -0.10412298       0.10410362      -3.18575096
O        7.89766000       9.94643000      10.78640000      -1.83494556      -0.14225751       0.04003890      -0.06233273      -5.20176315       0.14205539       0.01771560       0.35975748      -1.79956293
O        9.87691000       7.95960000      10.78640000      -5.20178318      -0.06232424      -0.14204746      -0.14225715      -1.83493876      -0.04002537      -0.35976928      -0.01769971      -1.79955506
O        7.93054000       7.92671000       0.12062500      -2.01766205       0.02102905      -0.26815104       0.02102792      -2.01766729       0.26812428      -0.10411918       0.10410910      -3.18594408
