135
Lattice="11.898253856589696 0.0 0.0 0.0 11.898253856589696 0.0 0.0 0.0 12.912076929577747" Properties=species:S:1:pos:R:3:MACE_becs:R:9 timestep=100000 time_ps=200.0 lammps_kinetic_energy=5.95660547299377e-11 lammps_total_energy=-1103.86688877636 temperature_K=3.43897801207072e-09 lammps_pressure_bar=37880.2219082291 lammps_stress_bar="40223.4823331619 0.210945732282202 -0.111005911598229 0.210945732282202 40223.4797803624 0.0356936718161739 -0.111005911598229 0.0356936718161739 33193.7036111631" MACE_electric_field="0.0 0.0 0.3636" MACE_polarization="-1.0700240693495289e-07 -1.9159832054249648e-10 -0.04039387404918671" MACE_polarizability="5.107524871826172 7.715205185832019e-08 -2.4219868919317378e-06 7.013861846871805e-08 5.107527732849121 5.342693043530744e-07 -2.416908955638064e-06 5.261277351564786e-07 4.2233662605285645" pbc="T T T"
Ba       1.98235000       1.97665000      -0.35723400       2.86482430       0.00000044       0.00000675       0.00000378       2.86482286       0.00001022       0.00000824       0.00000413       3.21589518
Ba       1.98235000       1.97666000       3.94679000       2.86480045       0.00000024       0.00000034       0.00000819       2.86479998       0.00000216      -0.00000448      -0.00000592       3.21581602
Ba       1.98235000       1.97666000       8.25082000       2.86478806       0.00000088      -0.00001321       0.00000204       2.86478591      -0.00000537      -0.00000487       0.00000171       3.21578789
Ba       1.98235000       5.94274000      -0.35723400       2.86482549       0.00000135       0.00000627      -0.00000205       2.86482811      -0.00000224       0.00000369      -0.00000269       3.21588993
Ba       1.98235000       5.94274000       3.94679000       2.86481285      -0.00000107      -0.00000169      -0.00000268       2.86480618       0.00000827       0.00000234       0.00000519       3.21581459
Ba       1.98235000       5.94274000       8.25082000       2.86478949       0.00000077      -0.00000318      -0.00000210       2.86478519       0.00001146      -0.00000449       0.00000625       3.21577215
Ba       1.98235000       9.90882000      -0.35723300       2.86481810       0.00000349      -0.00000578       0.00000071       2.86482859      -0.00000413      -0.00000544      -0.00000298       3.21589208
Ba       1.98235000       9.90882000       3.94679000       2.86480403      -0.00000172       0.00000986      -0.00000042       2.86480188       0.00000547      -0.00000211       0.00000757       3.21581936
Ba       1.98235000       9.90883000       8.25082000       2.86478662      -0.00000296      -0.00001541      -0.00000115       2.86479092      -0.00001279      -0.00000798       0.00000176       3.21578979
Ba       5.94843000       1.97665000      -0.35723400       2.86481380       0.00000166      -0.00000964       0.00000423       2.86483002       0.00000756      -0.00000118      -0.00000173       3.21587729
Ba       5.94843000       1.97666000       3.94679000       2.86480665      -0.00000015       0.00000831       0.00000142       2.86481047       0.00000549       0.00000079       0.00000306       3.21580458
Ba       5.94843000       1.97666000       8.25082000       2.86477947       0.00000277       0.00000267      -0.00000006       2.86479139       0.00000031      -0.00001308      -0.00000230       3.21578741
Ba       5.94843000       5.94274000      -0.35723300       2.86481571       0.00000042      -0.00000220      -0.00000006       2.86480784      -0.00000339       0.00000286       0.00000148       3.21588755
Ba       5.94843000       5.94274000       3.94679000       2.86480761      -0.00000132       0.00000763      -0.00000057       2.86480188       0.00001269       0.00000021      -0.00000107       3.21582031
Ba       5.94843000       5.94274000       8.25082000       2.86477280      -0.00000203       0.00000401       0.00000049       2.86477304       0.00000576      -0.00000864       0.00000514       3.21577978
Ba       5.94843000       9.90882000      -0.35723400       2.86482286       0.00000036      -0.00001342      -0.00000288       2.86481857      -0.00001849      -0.00000702      -0.00000903       3.21587038
Ba       5.94843000       9.90882000       3.94679000       2.86481547       0.00000039       0.00001032      -0.00000093       2.86480951       0.00001176      -0.00000265      -0.00000297       3.21581030
Ba       5.94843000       9.90883000       8.25082000       2.86478662      -0.00000097      -0.00000484      -0.00000197       2.86478186      -0.00001792      -0.00000911       0.00000398       3.21578646
Ba       9.91452000       1.97665000      -0.35723400       2.86481953      -0.00000160       0.00000871      -0.00000208       2.86482024       0.00001709       0.00000465       0.00000277       3.21589327
Ba       9.91452000       1.97666000       3.94679000       2.86480665      -0.00000207      -0.00001663      -0.00000708       2.86481142       0.00001552      -0.00000371      -0.00000056       3.21581554
Ba       9.91452000       1.97666000       8.25082000       2.86478472      -0.00000959       0.00000353      -0.00000066       2.86478400      -0.00000803       0.00000519      -0.00000116       3.21578360
Ba       9.91452000       5.94274000      -0.35723400       2.86482906       0.00000065       0.00000210       0.00000159       2.86482239      -0.00000101      -0.00000407      -0.00000221       3.21589470
Ba       9.91452000       5.94274000       3.94679000       2.86481237       0.00000406      -0.00002052       0.00000234       2.86480665       0.00001075      -0.00000132      -0.00000160       3.21582317
Ba       9.91452000       5.94274000       8.25082000       2.86477470       0.00000520       0.00000443       0.00000013       2.86477613       0.00000367       0.00000632       0.00000753       3.21577716
Ba       9.91452000       9.90882000      -0.35723400       2.86481571      -0.00000162      -0.00000091       0.00000463       2.86482525      -0.00001705       0.00000233      -0.00001082       3.21588326
Ba       9.91452000       9.90882000       3.94679000       2.86481047       0.00000076      -0.00001142       0.00000008       2.86480927       0.00000232      -0.00000581       0.00000400       3.21581745
Ba       9.91452000       9.90883000       8.25082000       2.86478949       0.00000259      -0.00000965       0.00000237       2.86478662      -0.00001055      -0.00000066       0.00000903       3.21577811
Ti      -0.00069538      -0.00638649       1.90218000       6.22667170       0.00001163      -0.00001105       0.00000673       6.22671652       0.00004302      -0.00001428       0.00001025       4.07298565
Ti      -0.00069511      -0.00638647       6.20621000       6.22664452      -0.00000049      -0.00000610      -0.00000741       6.22666693      -0.00000024      -0.00001821      -0.00001470       4.07301998
Ti      -0.00069487      -0.00638652      10.51020000       6.22647762       0.00000240       0.00000333       0.00000532       6.22651339       0.00002044      -0.00002091       0.00001998       4.07277155
Ti      -0.00069527       3.95970000       1.90218000       6.22667265      -0.00001591      -0.00000751      -0.00002045       6.22666168      -0.00001155      -0.00002161       0.00004841       4.07302141
Ti      -0.00069522       3.95970000       6.20621000       6.22663212       0.00000363      -0.00000414       0.00000911       6.22666311      -0.00001572       0.00000034      -0.00001875       4.07300091
Ti      -0.00069498       3.95970000      10.51020000       6.22649956      -0.00001363      -0.00000039      -0.00001539       6.22651768       0.00000700      -0.00000659       0.00003174       4.07280445
Ti      -0.00069528       7.92578000       1.90218000       6.22665834       0.00001032       0.00000198       0.00001020       6.22668028       0.00001895      -0.00002428      -0.00000488       4.07301140
Ti      -0.00069512       7.92578000       6.20621000       6.22667789      -0.00000879      -0.00001062      -0.00000367       6.22663260      -0.00001040      -0.00001105      -0.00002695       4.07300091
Ti      -0.00069490       7.92578000      10.51020000       6.22647762       0.00001179      -0.00001758       0.00001493       6.22652531      -0.00000243      -0.00001021       0.00002005       4.07282305
Ti       3.96539000      -0.00638680       1.90218000       6.22665596      -0.00000156      -0.00002272      -0.00001166       6.22666359       0.00000574      -0.00000332       0.00000180       4.07303715
Ti       3.96539000      -0.00638664       6.20621000       6.22672939      -0.00000225      -0.00000984      -0.00000164       6.22668314      -0.00001829       0.00000388      -0.00002136       4.07297373
Ti       3.96539000      -0.00638670      10.51020000       6.22652817       0.00000054       0.00000059      -0.00000735       6.22651148       0.00001791      -0.00000741       0.00001169       4.07279301
Ti       3.96539000       3.95970000       1.90218000       6.22665310       0.00000955      -0.00003406       0.00000931       6.22665834      -0.00001067      -0.00000963       0.00000285       4.07301140
Ti       3.96539000       3.95970000       6.20621000       6.22668219       0.00000028       0.00000837      -0.00000256       6.22667360      -0.00001418      -0.00002551      -0.00001698       4.07296467
Ti       3.96539000       3.95970000      10.51020000       6.22652149       0.00001483       0.00000312       0.00001285       6.22648716       0.00000968      -0.00000787       0.00003332       4.07283306
Ti       3.96539000       7.92578000       1.90218000       6.22666359      -0.00001351      -0.00001991      -0.00002483       6.22665691       0.00001448      -0.00000103      -0.00001432       4.07302904
Ti       3.96539000       7.92578000       6.20621000       6.22670317      -0.00001667       0.00000459      -0.00001497       6.22663975      -0.00002818      -0.00000286      -0.00001457       4.07298756
Ti       3.96539000       7.92578000      10.51020000       6.22650480      -0.00000443       0.00000330       0.00000106       6.22651768       0.00000982       0.00000604      -0.00000548       4.07281351
Ti       7.93147000      -0.00638641       1.90218000       6.22666836      -0.00001447      -0.00000205      -0.00001507       6.22673082       0.00002615      -0.00001728      -0.00001053       4.07302761
Ti       7.93147000      -0.00638658       6.20621000       6.22664976       0.00000202      -0.00001415       0.00000468       6.22669649      -0.00001684       0.00000062      -0.00002485       4.07300758
Ti       7.93147000      -0.00638659      10.51020000       6.22648811       0.00001321      -0.00002085       0.00001818       6.22652721       0.00002078      -0.00001451       0.00001197       4.07280350
Ti       7.93147000       3.95970000       1.90218000       6.22666693      -0.00000000      -0.00000985      -0.00000346       6.22667170      -0.00001444      -0.00001450       0.00001964       4.07301855
Ti       7.93147000       3.95970000       6.20621000       6.22663546      -0.00000532       0.00001069      -0.00000376       6.22666979      -0.00000095       0.00001651      -0.00000111       4.07296133
Ti       7.93147000       3.95970000      10.51020000       6.22650528       0.00000345      -0.00003213       0.00000116       6.22649670       0.00000598      -0.00001648       0.00002745       4.07287502
Ti       7.93147000       7.92578000       1.90218000       6.22665358       0.00000697      -0.00001376       0.00000970       6.22665977       0.00000555      -0.00002676      -0.00001963       4.07301807
Ti       7.93147000       7.92578000       6.20621000       6.22665501       0.00000726      -0.00000983       0.00000871       6.22664165      -0.00003574      -0.00001376      -0.00000823       4.07297897
Ti       7.93147000       7.92578000      10.51020000       6.22646809      -0.00001129      -0.00003559      -0.00000947       6.22651482      -0.00000055      -0.00001928       0.00002774       4.07286930
O       -0.00069486       1.97665000       2.27024000      -2.04033232       0.00000535      -0.00000364       0.00000312      -5.10526133      -0.00002343      -0.00000138      -0.00002829      -1.99665618
O        1.98235000      -0.00638680       2.27024000      -5.10523939       0.00000416       0.00001206       0.00000467      -2.04035378       0.00000047       0.00002410      -0.00000205      -1.99665606
O       -0.00069535      -0.00638632       4.46803000      -1.94588733      -0.00000260       0.00000820      -0.00000282      -1.94589877      -0.00000467       0.00000514       0.00000982      -3.29545712
O       -0.00069655       1.97666000       6.57427000      -2.04033780       0.00000303      -0.00000061      -0.00000281      -5.10524416       0.00002148       0.00000331       0.00001536      -1.99665475
O        1.98235000      -0.00638535       6.57427000      -5.10523987      -0.00000117       0.00001059       0.00000482      -2.04033852       0.00000432       0.00000256       0.00000690      -1.99664807
O       -0.00069529      -0.00638676       8.77206000      -1.94581497       0.00000131       0.00000018       0.00000110      -1.94581711      -0.00000386      -0.00000622      -0.00000537      -3.29555154
O       -0.00069419       1.97665000      10.87830000      -2.04034328       0.00000271      -0.00000963       0.00000027      -5.10513020      -0.00001293      -0.00001387      -0.00002511      -1.99664724
O        1.98235000      -0.00638732      10.87830000      -5.10512352      -0.00000012       0.00001059       0.00000010      -2.04034853      -0.00000104       0.00001553      -0.00000625      -1.99664557
O       -0.00069459      -0.00638635       0.16400800      -1.94588923       0.00000103       0.00000712       0.00000183      -1.94589043      -0.00002320       0.00001014      -0.00000000      -3.29538989
O       -0.00069488       5.94274000       2.27024000      -2.04032421       0.00000068      -0.00000436       0.00000032      -5.10526514      -0.00000194       0.00000933      -0.00000246      -1.99664736
O        1.98235000       3.95970000       2.27024000      -5.10525560      -0.00000128       0.00000697      -0.00000262      -2.04035354       0.00001308       0.00001191       0.00001076      -1.99666452
O       -0.00069538       3.95970000       4.46803000      -1.94589472      -0.00000177       0.00000205      -0.00000132      -1.94589233       0.00000777      -0.00000796      -0.00000114      -3.29545259
O       -0.00069610       5.94274000       6.57427000      -2.04033422      -0.00000192      -0.00000528       0.00000185      -5.10524035      -0.00000310      -0.00000149       0.00000597      -1.99664104
O        1.98235000       3.95970000       6.57427000      -5.10523033       0.00000183       0.00000476      -0.00000224      -2.04033566       0.00000047      -0.00000329      -0.00000455      -1.99665010
O       -0.00069543       3.95970000       8.77206000      -1.94581771       0.00000169       0.00000831      -0.00000050      -1.94582236      -0.00000354      -0.00000442       0.00000001      -3.29556108
O       -0.00069425       5.94274000      10.87830000      -2.04032779      -0.00000127       0.00000517       0.00000210      -5.10513973      -0.00000496       0.00000273      -0.00000981      -1.99663448
O        1.98235000       3.95970000      10.87830000      -5.10512161      -0.00000015       0.00000396      -0.00000052      -2.04034615      -0.00000318       0.00001624      -0.00000160      -1.99664021
O       -0.00069470       3.95970000       0.16400800      -1.94588029       0.00000137       0.00000677       0.00000083      -1.94588351      -0.00000590       0.00000898      -0.00000377      -3.29538727
O       -0.00069484       9.90882000       2.27024000      -2.04033613      -0.00000302      -0.00000105      -0.00000240      -5.10523319      -0.00000196      -0.00000248      -0.00001250      -1.99665773
O        1.98235000       7.92578000       2.27024000      -5.10524654       0.00000060       0.00000652       0.00000694      -2.04035664      -0.00000489       0.00001824      -0.00000564      -1.99666405
O       -0.00069549       7.92578000       4.46803000      -1.94588494       0.00000102       0.00000366      -0.00000214      -1.94589674       0.00000003      -0.00000234       0.00000074      -3.29545951
O       -0.00069655       9.90883000       6.57427000      -2.04033709      -0.00000287      -0.00000215       0.00000133      -5.10526228       0.00000837       0.00000644       0.00002552      -1.99665070
O        1.98235000       7.92578000       6.57427000      -5.10525846       0.00000133       0.00000961       0.00000003      -2.04034138       0.00000573       0.00000383       0.00001083      -1.99664271
O       -0.00069511       7.92578000       8.77206000      -1.94581604      -0.00000028       0.00001219      -0.00000055      -1.94581938       0.00000335      -0.00000344       0.00000114      -3.29556370
O       -0.00069424       9.90882000      10.87830000      -2.04034662      -0.00000300      -0.00000714       0.00000379      -5.10514498      -0.00000161      -0.00001089      -0.00001988      -1.99664712
O        1.98235000       7.92578000      10.87830000      -5.10511923       0.00000320       0.00000392      -0.00000034      -2.04034376      -0.00000427       0.00001158      -0.00000300      -1.99665213
O       -0.00069453       7.92578000       0.16400800      -1.94589067      -0.00000232       0.00000216      -0.00000074      -1.94588685      -0.00000637       0.00001298      -0.00000182      -3.29538655
O        3.96539000       1.97666000       2.27024000      -2.04033756       0.00000010       0.00000994       0.00000031      -5.10524559       0.00000161       0.00001197      -0.00000272      -1.99666238
O        5.94843000      -0.00638677       2.27024000      -5.10528564       0.00000064      -0.00000185      -0.00000160      -2.04034877       0.00000361      -0.00000756      -0.00000116      -1.99664736
O        3.96539000      -0.00638625       4.46803000      -1.94589114       0.00000468       0.00000482      -0.00000034      -1.94590354       0.00000552       0.00000071       0.00000800      -3.29547405
O        3.96539000       1.97666000       6.57427000      -2.04034424      -0.00000323      -0.00000693      -0.00000163      -5.10523129       0.00000914      -0.00000361       0.00001474      -1.99665523
O        5.94843000      -0.00638522       6.57427000      -5.10525036       0.00000136      -0.00000091      -0.00000015      -2.04033017       0.00000008       0.00000684       0.00000835      -1.99664485
O        3.96539000      -0.00638729       8.77206000      -1.94582891       0.00000051      -0.00000169       0.00000189      -1.94582534       0.00000727       0.00000487      -0.00000348      -3.29553843
O        3.96539000       1.97665000      10.87830000      -2.04034853      -0.00000586       0.00000723      -0.00000179      -5.10512924      -0.00001481       0.00001354      -0.00002097      -1.99665308
O        5.94843000      -0.00638771      10.87830000      -5.10513496      -0.00000654       0.00000597      -0.00000136      -2.04034090      -0.00000339       0.00001557      -0.00000290      -1.99665487
O        3.96539000      -0.00638688       0.16400800      -1.94588208       0.00000137       0.00000386       0.00000035      -1.94589257      -0.00000873       0.00000180      -0.00000064      -3.29538155
O        3.96539000       5.94274000       2.27024000      -2.04033566      -0.00000159       0.00000755       0.00000250      -5.10524845       0.00000020       0.00000538       0.00000219      -1.99665999
O        5.94843000       3.95970000       2.27024000      -5.10527039       0.00000481       0.00000206       0.00000198      -2.04033732       0.00000304      -0.00000157      -0.00000176      -1.99665165
O        3.96539000       3.95970000       4.46803000      -1.94589853      -0.00000083       0.00000840      -0.00000250      -1.94590390       0.00000309       0.00000163      -0.00000245      -3.29545403
O        3.96539000       5.94274000       6.57427000      -2.04034495      -0.00000150      -0.00000380       0.00000030      -5.10522032      -0.00000097      -0.00001233       0.00001175      -1.99664700
O        5.94843000       3.95970000       6.57427000      -5.10522938       0.00000283      -0.00000131      -0.00000045      -2.04034472       0.00000073       0.00000300      -0.00000731      -1.99665236
O        3.96539000       3.95970000       8.77206000      -1.94581842      -0.00000038      -0.00000424      -0.00000030      -1.94582188      -0.00001033       0.00000099       0.00000018      -3.29554129
O        3.96539000       5.94274000      10.87830000      -2.04032898      -0.00000178       0.00000793      -0.00000216      -5.10513496      -0.00000436       0.00000926      -0.00001169      -1.99663889
O        5.94843000       3.95970000      10.87830000      -5.10513353      -0.00000554       0.00000043      -0.00000264      -2.04033756      -0.00000304       0.00001333      -0.00000553      -1.99664736
O        3.96539000       3.95970000       0.16400800      -1.94589162      -0.00000128       0.00000794       0.00000113      -1.94589555      -0.00000504      -0.00000436       0.00000133      -3.29540682
O        3.96539000       9.90882000       2.27024000      -2.04034042       0.00000211       0.00000735       0.00000174      -5.10523891      -0.00000497       0.00001020       0.00000254      -1.99666286
O        5.94843000       7.92578000       2.27024000      -5.10526228       0.00000358      -0.00000107       0.00000316      -2.04033804       0.00000080       0.00000110       0.00000519      -1.99665523
O        3.96539000       7.92578000       4.46803000      -1.94589639       0.00000047       0.00000110       0.00000203      -1.94590664       0.00000689       0.00000269       0.00000319      -3.29546213
O        3.96539000       9.90883000       6.57427000      -2.04034066       0.00000116       0.00000449      -0.00000106      -5.10525179       0.00000638       0.00000027       0.00000661      -1.99665546
O        5.94843000       7.92578000       6.57427000      -5.10524702      -0.00000091       0.00000070       0.00000009      -2.04033589       0.00000406       0.00000601       0.00001699      -1.99664092
O        3.96539000       7.92578000       8.77206000      -1.94581962       0.00000247      -0.00000166       0.00000158      -1.94581974       0.00000876       0.00000491       0.00000084      -3.29555726
O        3.96539000       9.90882000      10.87830000      -2.04034996       0.00000237       0.00000549       0.00000414      -5.10512257      -0.00000431       0.00001110      -0.00001286      -1.99665809
O        5.94843000       7.92578000      10.87830000      -5.10511017       0.00000261      -0.00000049      -0.00000094      -2.04033756      -0.00001053       0.00001360      -0.00000662      -1.99665630
O        3.96539000       7.92578000       0.16400800      -1.94588912       0.00000080       0.00001116       0.00000057      -1.94588196      -0.00000778      -0.00000212      -0.00000133      -3.29538202
O        7.93147000       1.97666000       2.27024000      -2.04034638      -0.00000661      -0.00000376       0.00000138      -5.10526657      -0.00000329      -0.00000137       0.00000419      -1.99664855
O        9.91452000      -0.00638680       2.27024000      -5.10524368       0.00000266       0.00001184      -0.00000167      -2.04035187       0.00000066       0.00001878       0.00000081      -1.99665225
O        7.93147000      -0.00638602       4.46803000      -1.94589710      -0.00000327       0.00000907      -0.00000077      -1.94589782       0.00000362       0.00000091       0.00000498      -3.29547501
O        7.93147000       1.97666000       6.57427000      -2.04034376      -0.00000034       0.00000399       0.00000170      -5.10524368       0.00000627       0.00000027       0.00001086      -1.99664974
O        9.91452000      -0.00638524       6.57427000      -5.10523605      -0.00000283       0.00001644      -0.00000397      -2.04033756      -0.00000102       0.00002411       0.00000328      -1.99665189
O        7.93147000      -0.00638683       8.77206000      -1.94582725       0.00000167       0.00000977      -0.00000018      -1.94581735       0.00000524      -0.00000591      -0.00000468      -3.29553890
O        7.93148000       1.97665000      10.87830000      -2.04035687      -0.00000422      -0.00000778      -0.00000029      -5.10514069      -0.00001272      -0.00000943      -0.00002415      -1.99664521
O        9.91452000      -0.00638743      10.87830000      -5.10511065      -0.00000526       0.00000932      -0.00000294      -2.04034853      -0.00000022       0.00001757      -0.00000428      -1.99665189
O        7.93147000      -0.00638697       0.16400800      -1.94588423       0.00000018       0.00001341       0.00000059      -1.94587553      -0.00000801       0.00000132      -0.00000227      -3.29536533
O        7.93147000       5.94274000       2.27024000      -2.04034591       0.00000273      -0.00001226      -0.00000108      -5.10524988      -0.00000013      -0.00001083      -0.00000117      -1.99665153
O        9.91452000       3.95970000       2.27024000      -5.10524178       0.00000103       0.00001223       0.00000048      -2.04034352       0.00000625       0.00001688      -0.00000334      -1.99666500
O        7.93147000       3.95970000       4.46803000      -1.94590759      -0.00000003      -0.00000199      -0.00000046      -1.94589961       0.00000484       0.00000020       0.00000054      -3.29546475
O        7.93147000       5.94274000       6.57427000      -2.04034162       0.00000362       0.00000740      -0.00000381      -5.10522509       0.00000092       0.00000807       0.00001134      -1.99663520
O        9.91451000       3.95970000       6.57427000      -5.10520887       0.00000224      -0.00001215       0.00000713      -2.04034543       0.00000381      -0.00000473      -0.00000208      -1.99665952
O        7.93147000       3.95970000       8.77206000      -1.94582999       0.00000079      -0.00000038       0.00000355      -1.94582176      -0.00001009      -0.00000168      -0.00000110      -3.29554176
O        7.93148000       5.94274000      10.87830000      -2.04034567       0.00000222       0.00000899       0.00000353      -5.10517073      -0.00000076       0.00001765      -0.00000467      -1.99664307
O        9.91452000       3.95970000      10.87830000      -5.10510969      -0.00000284       0.00001197      -0.00000063      -2.04034352      -0.00000887       0.00000271      -0.00000557      -1.99664664
O        7.93147000       3.95970000       0.16400800      -1.94589353       0.00000449       0.00001909       0.00000019      -1.94587564       0.00000091      -0.00000014      -0.00000274      -3.29540181
O        7.93147000       9.90882000       2.27024000      -2.04034781       0.00000392      -0.00000130       0.00000080      -5.10524702       0.00000468       0.00000003      -0.00000548      -1.99665058
O        9.91452000       7.92578000       2.27024000      -5.10524464       0.00000046       0.00000662      -0.00000325      -2.04034901      -0.00000086       0.00001990       0.00000959      -1.99667060
O        7.93147000       7.92578000       4.46803000      -1.94589520      -0.00000054       0.00000112      -0.00000010      -1.94589388       0.00000402       0.00000450      -0.00000398      -3.29546452
O        7.93147000       9.90883000       6.57427000      -2.04034185       0.00000548      -0.00000483       0.00000374      -5.10526562       0.00001031      -0.00000146       0.00001635      -1.99664593
O        9.91452000       7.92578000       6.57427000      -5.10523891       0.00000207       0.00000866       0.00000364      -2.04034185      -0.00000577       0.00001841      -0.00000367      -1.99665010
O        7.93147000       7.92578000       8.77206000      -1.94582891      -0.00000203       0.00000579      -0.00000604      -1.94582152       0.00000896      -0.00000299       0.00000084      -3.29556870
O        7.93147000       9.90882000      10.87830000      -2.04035926      -0.00000688      -0.00000049      -0.00000085      -5.10513973      -0.00000157      -0.00000091      -0.00002665      -1.99665165
O        9.91452000       7.92578000      10.87830000      -5.10510254       0.00000267       0.00001256       0.00000207      -2.04034424       0.00000033       0.00000429      -0.00000421      -1.99665713
O        7.93147000       7.92578000       0.16400800      -1.94589615      -0.00000173       0.00001334       0.00000059      -1.94587111       0.00000044       0.00000105      -0.00000034      -3.29539490
